LAMMPS data file for spherocylinder HCS (N=2003, phi=1.000000e-02, AR=2.0)

2003 atoms
2003 ellipsoids
1 atom types

0.0 64.0039130811 xlo xhi
0.0 64.0039130811 ylo yhi
0.0 64.0039130811 zlo zhi

Atoms # ellipsoid

1 1 1 7.6394400000e-01 5.2728777480e+01 1.9025818356e+01 4.3836249446e+01
2 1 1 7.6394400000e-01 3.6154099165e+01 6.3568173904e+01 1.5522328851e+01
3 1 1 7.6394400000e-01 4.9872777081e+01 3.4539872394e+01 5.9155965525e+01
4 1 1 7.6394400000e-01 1.0388447747e+01 3.7766860256e+01 4.6443996304e+01
5 1 1 7.6394400000e-01 3.9209772968e+01 3.4629444179e+00 4.7562123440e+01
6 1 1 7.6394400000e-01 7.2758240829e+00 3.3568118414e+01 3.1618619587e+01
7 1 1 7.6394400000e-01 6.2636647909e+01 1.8922850587e+01 4.7896710712e+00
8 1 1 7.6394400000e-01 1.6886855705e+01 9.1058111837e+00 3.8652210928e+01
9 1 1 7.6394400000e-01 3.7162053906e+00 1.0483328938e+01 1.5126871846e+01
10 1 1 7.6394400000e-01 5.8452925208e+01 2.2353223531e+01 4.0589777536e+01
11 1 1 7.6394400000e-01 3.5465702987e+01 6.2899819972e+01 6.3798843740e+01
12 1 1 7.6394400000e-01 2.1386187652e+01 5.1409005437e+01 2.4181641848e+01
13 1 1 7.6394400000e-01 1.2812487064e+01 4.0225785639e+01 1.3940191857e+01
14 1 1 7.6394400000e-01 1.8888150490e+01 2.0398832706e+01 5.2489014241e+01
15 1 1 7.6394400000e-01 5.3152638431e+01 5.7694494403e+01 4.3317425251e+01
16 1 1 7.6394400000e-01 3.3969133450e+01 7.3405374128e+00 2.4041476042e+01
17 1 1 7.6394400000e-01 3.9105947628e+01 4.1676423033e+00 4.2176801745e+01
18 1 1 7.6394400000e-01 5.8749397523e+01 4.0948676208e+00 4.4320786507e+01
19 1 1 7.6394400000e-01 1.1232234465e+01 1.1073350092e+01 1.8167115726e+01
20 1 1 7.6394400000e-01 5.0645661012e+01 2.1548476290e+01 2.1798039940e+01
21 1 1 7.6394400000e-01 2.4764957977e+01 3.5052650381e+01 1.8791291624e+01
22 1 1 7.6394400000e-01 2.9046180888e+01 3.3896602854e+01 1.9603167740e+01
23 1 1 7.6394400000e-01 6.1052791455e+01 3.7074696154e+01 3.0658916012e+01
24 1 1 7.6394400000e-01 3.7928686456e+01 1.2279965749e+01 5.7121448005e+01
25 1 1 7.6394400000e-01 4.0682635122e+00 2.3445353703e+01 9.6649315344e+00
26 1 1 7.6394400000e-01 4.2153697021e+01 4.0514486311e+01 2.0947369934e+01
27 1 1 7.6394400000e-01 3.8194972226e+01 2.4013938164e+01 4.7240956597e+01
28 1 1 7.6394400000e-01 1.8762944809e+00 4.7524255880e+01 1.0296749101e+01
29 1 1 7.6394400000e-01 3.0507477152e+01 5.1217241662e+01 8.4884956624e+00
30 1 1 7.6394400000e-01 1.4359528637e+01 1.9884386296e+01 2.5118310253e+01
31 1 1 7.6394400000e-01 9.9355977021e+00 2.5703363137e+01 5.4768982276e+01
32 1 1 7.6394400000e-01 5.6306596329e+01 1.4421041536e+01 5.2638022161e+01
33 1 1 7.6394400000e-01 4.9792180738e+01 3.1302885111e+01 4.0978278421e+01
34 1 1 7.6394400000e-01 5.4015207105e+01 3.3871161490e+01 3.2052750935e+00
35 1 1 7.6394400000e-01 1.6237352323e+01 4.5028646251e+01 6.1446053513e+01
36 1 1 7.6394400000e-01 6.9768335956e+00 5.7853888652e+00 2.3410075189e+01
37 1 1 7.6394400000e-01 1.0812210009e+01 3.1740425652e+01 4.8100396779e+00
38 1 1 7.6394400000e-01 4.2683640057e+01 2.4987647272e+01 5.3085397089e+01
39 1 1 7.6394400000e-01 4.9251142576e+01 3.9758542155e+01 5.3227841605e+00
40 1 1 7.6394400000e-01 1.9442314355e+01 3.5788179383e+01 4.2505435426e+01
41 1 1 7.6394400000e-01 1.8254162495e+01 4.3411143156e+01 7.4381814412e-01
42 1 1 7.6394400000e-01 2.4110368150e+01 2.8055726206e+01 1.0586466422e+01
43 1 1 7.6394400000e-01 3.1724482058e+01 7.8242399838e+00 3.1968946952e+01
44 1 1 7.6394400000e-01 4.4979680503e+01 4.5959662055e+01 1.5968071960e+01
45 1 1 7.6394400000e-01 3.7856371936e+01 1.6948789005e+01 1.0298415285e+01
46 1 1 7.6394400000e-01 1.0290456171e+01 5.0296066410e+01 6.0868086396e+01
47 1 1 7.6394400000e-01 3.2319449492e+01 5.1265299074e+01 2.8093942738e+01
48 1 1 7.6394400000e-01 6.4033860196e+00 3.2916463694e+00 4.8527780874e+01
49 1 1 7.6394400000e-01 4.0924524776e+01 2.8375317519e+01 4.5510960720e+00
50 1 1 7.6394400000e-01 3.4027806346e+01 5.5721707816e+01 5.6526189113e+01
51 1 1 7.6394400000e-01 6.0006410155e+01 5.1896611992e+01 5.0718511510e+01
52 1 1 7.6394400000e-01 4.0454695766e+01 3.8813150747e+01 6.1425509234e+00
53 1 1 7.6394400000e-01 1.7013435383e+01 8.9124834726e+00 4.3788576050e+01
54 1 1 7.6394400000e-01 4.7147315297e+01 3.1677855855e+01 4.9445398666e+01
55 1 1 7.6394400000e-01 3.5762510990e+01 3.4357669735e+01 7.1199003245e+00
56 1 1 7.6394400000e-01 5.8318813744e+01 9.2327834278e+00 3.4972681253e+01
57 1 1 7.6394400000e-01 5.5317740534e+01 3.1271732501e+01 5.5299571627e+01
58 1 1 7.6394400000e-01 6.2558757948e+00 2.5855083445e+01 5.9123750452e+01
59 1 1 7.6394400000e-01 6.0916830574e+01 4.7694987911e+01 2.5401166847e+01
60 1 1 7.6394400000e-01 5.1230120503e+01 6.1148902001e+01 4.0631830019e+01
61 1 1 7.6394400000e-01 1.7967537621e+01 2.9191334879e+01 9.6771947685e+00
62 1 1 7.6394400000e-01 5.8026996386e+01 1.1164430855e+01 4.1965677470e+01
63 1 1 7.6394400000e-01 3.4295384926e+01 4.5587956654e+01 4.1788219148e+01
64 1 1 7.6394400000e-01 3.1894576398e+01 5.8790573635e-01 3.7396181894e+01
65 1 1 7.6394400000e-01 6.3754384014e+01 2.9010866502e+01 6.1828092920e+01
66 1 1 7.6394400000e-01 1.2751582842e+01 5.2422210254e+01 2.0260315349e+01
67 1 1 7.6394400000e-01 3.2567103562e+01 2.3389325167e+01 5.0131908883e+01
68 1 1 7.6394400000e-01 3.9730207354e+01 1.3792813817e+00 2.2795939542e+01
69 1 1 7.6394400000e-01 4.2933838383e+01 1.2288708228e+01 2.2901418397e+01
70 1 1 7.6394400000e-01 1.5983293920e+01 4.7757631326e+01 2.7805315970e+01
71 1 1 7.6394400000e-01 5.7126681871e+01 4.3333137894e+01 1.6057025579e+01
72 1 1 7.6394400000e-01 1.1298493955e+01 5.8007091530e+01 1.2828280403e+01
73 1 1 7.6394400000e-01 4.1828061450e+01 5.3659966905e+01 6.8690361088e-01
74 1 1 7.6394400000e-01 6.1352715331e+01 5.6001892777e+01 3.9888225708e+01
75 1 1 7.6394400000e-01 6.5957586913e+00 3.8050123348e+01 6.0796487255e+01
76 1 1 7.6394400000e-01 4.5424478217e+00 2.7102766085e+01 4.7465076026e+01
77 1 1 7.6394400000e-01 2.0684704069e+01 5.1880116846e+01 1.9297979059e+00
78 1 1 7.6394400000e-01 4.5719115616e+01 4.9003917073e+01 2.6711197647e+01
79 1 1 7.6394400000e-01 2.8652719522e+01 3.9097289128e+01 3.5061994044e+01
80 1 1 7.6394400000e-01 3.5457727241e+01 3.9200784818e+01 4.6651469291e+01
81 1 1 7.6394400000e-01 6.1826914480e+01 5.7800319013e-01 4.5087843189e+01
82 1 1 7.6394400000e-01 9.2299420970e+00 6.1913724269e+01 4.8970501338e+01
83 1 1 7.6394400000e-01 5.0194275437e+00 2.0359083881e+01 2.9519100859e+01
84 1 1 7.6394400000e-01 1.3380341245e+01 3.1622552343e+00 2.5293359924e+01
85 1 1 7.6394400000e-01 5.4008644954e+01 2.1880646031e+01 3.7499647819e+01
86 1 1 7.6394400000e-01 4.0724519149e+01 2.8918779551e+01 3.5948465504e+01
87 1 1 7.6394400000e-01 5.7358627436e+00 3.0603862219e+01 3.6877599062e+00
88 1 1 7.6394400000e-01 1.2537808728e+01 2.9680219028e+01 5.9418511362e+01
89 1 1 7.6394400000e-01 2.6680328145e+01 8.4565710402e+00 5.6398214699e+01
90 1 1 7.6394400000e-01 1.3209845396e+01 5.6809303355e+01 9.6558137514e+00
91 1 1 7.6394400000e-01 2.0928875996e+01 6.1886954617e+01 6.2163324023e+01
92 1 1 7.6394400000e-01 6.3646412043e+01 5.8233229043e+01 6.1315730860e+01
93 1 1 7.6394400000e-01 6.6369677633e+00 2.5412153314e+01 2.7995736987e+01
94 1 1 7.6394400000e-01 4.8910098155e+01 2.2272288344e+01 4.9446437801e+01
95 1 1 7.6394400000e-01 5.2683762076e+01 4.2070952735e+01 2.1194478571e+00
96 1 1 7.6394400000e-01 3.1277603491e+01 2.8024700716e+01 4.6032993182e+01
97 1 1 7.6394400000e-01 2.4532304094e+01 5.7382940189e+01 1.5688103639e+01
98 1 1 7.6394400000e-01 2.2418164750e+01 7.5199131560e+00 3.6709202523e+01
99 1 1 7.6394400000e-01 4.5040313992e+01 4.3943915653e+01 5.4281718995e+01
100 1 1 7.6394400000e-01 2.9843493473e+01 1.3912443753e+01 1.5752296938e+01
101 1 1 7.6394400000e-01 5.5111610015e+01 3.5720974852e+01 4.6129906093e+01
102 1 1 7.6394400000e-01 3.7721675566e+01 5.2213347399e+01 5.1891629679e+01
103 1 1 7.6394400000e-01 3.3274238037e+01 2.9798422416e+01 5.0221522876e+01
104 1 1 7.6394400000e-01 7.2863679817e+00 2.3180293872e+01 1.7906795531e+01
105 1 1 7.6394400000e-01 5.2192445273e+01 3.0048198481e+01 2.5462610615e+01
106 1 1 7.6394400000e-01 6.1983561110e+01 1.2955432422e+01 5.3384298768e+01
107 1 1 7.6394400000e-01 4.7286230887e+01 1.2977314710e+01 6.1564964860e+01
108 1 1 7.6394400000e-01 2.2610700800e+01 6.2450774629e+00 3.2063989903e+01
109 1 1 7.6394400000e-01 4.2654410035e+01 2.9076770603e+01 1.0030342643e+01
110 1 1 7.6394400000e-01 2.2158497768e+01 5.1484687047e+01 4.7702107120e+01
111 1 1 7.6394400000e-01 4.0867747959e+01 4.2128549560e+01 4.2807554896e+01
112 1 1 7.6394400000e-01 4.5842036352e+01 6.2542251128e+01 1.6485551169e+00
113 1 1 7.6394400000e-01 3.7004736135e+01 1.1185879195e+01 1.5047786447e+01
114 1 1 7.6394400000e-01 4.9599327622e+01 6.1085504881e+01 2.4681577523e+01
115 1 1 7.6394400000e-01 4.9501651847e+01 2.5139862597e+01 8.3816526800e+00
116 1 1 7.6394400000e-01 6.1147291212e+01 2.0705832819e+01 3.2978567750e+01
117 1 1 7.6394400000e-01 1.7142633583e+01 3.9411160287e+01 2.5339696988e+01
118 1 1 7.6394400000e-01 6.2812686770e+01 4.2620043075e+01 4.0057445521e+01
119 1 1 7.6394400000e-01 2.6698742117e+01 2.6671914197e+00 2.4373093701e+01
120 1 1 7.6394400000e-01 5.7594723004e+01 2.3489751103e+01 3.0648498421e+01
121 1 1 7.6394400000e-01 1.6347599916e+01 6.2738735188e+01 4.5664758794e+01
122 1 1 7.6394400000e-01 1.3017441213e+01 6.1312469313e+01 4.8604227411e+01
123 1 1 7.6394400000e-01 3.3393663988e+01 5.4949216799e+01 1.7959692728e+01
124 1 1 7.6394400000e-01 5.0011470856e+01 5.4578306458e+01 5.8666066315e+01
125 1 1 7.6394400000e-01 2.7749094450e+01 4.8232513886e+01 2.3215726620e+01
126 1 1 7.6394400000e-01 3.8299311802e+01 5.5630019745e+01 4.5830526750e+01
127 1 1 7.6394400000e-01 4.6359275856e+01 5.3359961597e+01 5.4376343992e+00
128 1 1 7.6394400000e-01 4.8688654670e+01 6.0994456847e+01 1.3305744706e+00
129 1 1 7.6394400000e-01 2.3388060362e+01 1.8986081077e+01 2.9023098663e+01
130 1 1 7.6394400000e-01 4.8033419560e+01 3.1152524757e+01 2.0365337384e+01
131 1 1 7.6394400000e-01 5.5675704557e+01 2.0906073326e+01 1.6333657865e+01
132 1 1 7.6394400000e-01 3.4000276606e+01 1.3317465581e+01 6.2223482252e+01
133 1 1 7.6394400000e-01 5.3685577187e+01 6.5739026299e+00 2.7081991462e+01
134 1 1 7.6394400000e-01 5.0172448847e+00 1.5387194583e+01 2.5202109252e+01
135 1 1 7.6394400000e-01 2.5910500732e+01 3.7197447641e+01 2.5229768032e+01
136 1 1 7.6394400000e-01 3.2249605843e+01 5.1072428599e+01 3.6553931376e+01
137 1 1 7.6394400000e-01 2.1116270612e+01 4.2628982335e+01 5.5998226623e+00
138 1 1 7.6394400000e-01 1.6529521763e+01 5.1145488626e+01 2.6006561667e+01
139 1 1 7.6394400000e-01 5.3529861681e+01 9.1928024583e+00 8.8761759296e+00
140 1 1 7.6394400000e-01 5.0448366006e+01 4.3707957550e+01 9.0955228745e+00
141 1 1 7.6394400000e-01 5.4227521356e+01 6.3569475662e+01 9.7665197766e+00
142 1 1 7.6394400000e-01 6.1837412880e+01 3.0422699600e+01 7.5474301303e-01
143 1 1 7.6394400000e-01 9.3670449817e+00 4.8644974632e+01 1.5102524421e+01
144 1 1 7.6394400000e-01 8.0480108903e+00 3.2300929419e+01 5.4191559031e+01
145 1 1 7.6394400000e-01 5.0526433028e+01 2.3427777095e+01 1.8668517963e+01
146 1 1 7.6394400000e-01 1.8952234316e+01 2.5489374312e+01 2.0521700800e+00
147 1 1 7.6394400000e-01 2.1902680495e+01 4.8889016019e+01 7.8932605046e+00
148 1 1 7.6394400000e-01 3.8563754297e+01 3.8421182307e+00 1.5762801946e+01
149 1 1 7.6394400000e-01 9.0163550085e-01 2.4472793573e+01 2.8214314122e+01
150 1 1 7.6394400000e-01 5.3111638489e+01 6.3148622683e+01 4.3399557097e+01
151 1 1 7.6394400000e-01 5.9770702116e+01 3.3192218427e+01 2.5750515102e+01
152 1 1 7.6394400000e-01 3.7276084475e+01 3.4978355321e+01 5.1215316864e+01
153 1 1 7.6394400000e-01 2.5458682733e+01 2.9644241386e+01 3.5298769207e+01
154 1 1 7.6394400000e-01 6.0250896104e+01 5.5222606818e+01 6.2617940724e+01
155 1 1 7.6394400000e-01 4.5856994487e+01 3.8462448502e+01 1.4163743091e+01
156 1 1 7.6394400000e-01 5.3004458042e+01 3.7123399352e+01 3.2682846199e+01
157 1 1 7.6394400000e-01 4.3654360972e+01 4.8935887828e+01 4.2784193202e+01
158 1 1 7.6394400000e-01 1.0711183959e+01 5.2763412191e+01 4.7062074647e+01
159 1 1 7.6394400000e-01 5.0241453596e+01 5.8159601158e+01 5.0622665415e+01
160 1 1 7.6394400000e-01 4.8436234036e+01 2.6387600452e+01 1.8128227745e+01
161 1 1 7.6394400000e-01 2.4337418491e+01 4.9987882784e+01 3.8728683849e+01
162 1 1 7.6394400000e-01 6.2015569574e+01 3.9774765564e+01 5.2366018537e+01
163 1 1 7.6394400000e-01 3.3224371751e+00 1.4135275816e+00 1.3570654785e+01
164 1 1 7.6394400000e-01 4.0902622444e+00 4.7972202888e+00 4.1705529740e+01
165 1 1 7.6394400000e-01 6.2365027016e+01 1.3822730763e-01 1.3326303243e+01
166 1 1 7.6394400000e-01 5.2059851823e+01 7.8265794083e+00 2.3807639956e+01
167 1 1 7.6394400000e-01 1.3936563785e+01 2.2294977575e+01 3.9973237454e+01
168 1 1 7.6394400000e-01 5.9952695912e+01 2.9868357458e+01 1.2991677320e+01
169 1 1 7.6394400000e-01 6.9602460941e+00 4.0106161271e+00 1.6444494247e+01
170 1 1 7.6394400000e-01 2.1205396987e+01 5.6608480866e+00 5.0594944619e+01
171 1 1 7.6394400000e-01 3.2357778881e+01 4.3878219467e+01 4.3521895830e+01
172 1 1 7.6394400000e-01 1.0044243511e+00 2.2298076179e+01 4.8090176577e+00
173 1 1 7.6394400000e-01 5.1737637793e+01 1.5749836071e+01 3.1274004233e+01
174 1 1 7.6394400000e-01 4.3960702161e+01 5.7604062200e+01 5.8148625063e+01
175 1 1 7.6394400000e-01 1.9530280115e+01 5.2099940066e+01 1.7921626228e+01
176 1 1 7.6394400000e-01 1.2351217437e+01 3.6643572353e+01 2.1185899915e+00
177 1 1 7.6394400000e-01 1.7378633448e+01 9.4700613966e-01 6.3069820474e+01
178 1 1 7.6394400000e-01 4.5864974492e+01 2.6653491770e-01 2.8173480775e+01
179 1 1 7.6394400000e-01 4.9840522797e+01 2.8950584460e+01 2.5951830847e+01
180 1 1 7.6394400000e-01 2.8245600891e+00 3.8023393633e+01 4.7408044321e+01
181 1 1 7.6394400000e-01 1.5372079599e+01 4.0771937405e+01 9.2462203118e+00
182 1 1 7.6394400000e-01 8.2969067881e+00 3.6278585078e+01 5.6352650357e+01
183 1 1 7.6394400000e-01 3.3528425073e+01 2.9139970366e+01 3.7911010659e+01
184 1 1 7.6394400000e-01 1.5203710531e+01 5.4840831990e+01 3.2683598410e+01
185 1 1 7.6394400000e-01 2.9420688367e+01 4.0415826928e+00 2.2545888470e+00
186 1 1 7.6394400000e-01 3.6138871931e+01 8.7485908228e-01 2.3342919680e+01
187 1 1 7.6394400000e-01 1.7569462005e+01 4.1661406142e+01 4.6646453899e+01
188 1 1 7.6394400000e-01 5.4719620036e+01 1.4887679300e+01 5.7635006948e+01
189 1 1 7.6394400000e-01 2.1655725965e+01 6.1676494219e+01 1.0671753952e+01
190 1 1 7.6394400000e-01 1.1580792343e+01 3.7400531473e+01 5.7543978072e+01
191 1 1 7.6394400000e-01 5.1443620059e+01 2.7255352446e+01 5.1514533279e+01
192 1 1 7.6394400000e-01 4.6688775190e+01 5.8127448440e+01 4.7571627169e+01
193 1 1 7.6394400000e-01 5.6033970674e+01 3.8184129672e+01 1.7873032604e+01
194 1 1 7.6394400000e-01 2.5485854354e+01 6.1713159623e+01 3.3479422912e+01
195 1 1 7.6394400000e-01 3.5800418994e+01 4.2838925490e+01 4.8386415486e+01
196 1 1 7.6394400000e-01 1.2758256338e+00 5.7119088728e+00 5.0662181395e+00
197 1 1 7.6394400000e-01 1.7237644138e+01 3.1670516158e+01 2.8766457609e+01
198 1 1 7.6394400000e-01 2.5087148307e+01 6.3246202350e+01 1.8821590427e+00
199 1 1 7.6394400000e-01 2.1084134347e+01 6.1701428439e+01 5.6794990862e+01
200 1 1 7.6394400000e-01 2.7789039705e+01 5.7484431462e+01 1.9932463664e+01
201 1 1 7.6394400000e-01 6.3204008596e+01 6.2673409096e+01 5.4119101057e+01
202 1 1 7.6394400000e-01 5.3106907886e+01 1.8515553361e+01 2.7332077092e+01
203 1 1 7.6394400000e-01 5.1745295785e+01 3.5746697915e+01 3.7958465252e+01
204 1 1 7.6394400000e-01 4.2631492713e+01 6.1742417286e+01 4.5755667240e+01
205 1 1 7.6394400000e-01 8.6093662732e+00 6.1320173738e+01 5.9864503095e+01
206 1 1 7.6394400000e-01 1.7776649034e+01 3.3577839716e+00 2.1098648701e+01
207 1 1 7.6394400000e-01 4.0251688572e+01 1.5107017673e+01 4.5277984928e+01
208 1 1 7.6394400000e-01 3.1658313724e+01 2.1310762069e+01 3.5795963450e+01
209 1 1 7.6394400000e-01 4.4267164207e+01 8.0358952418e+00 2.7886751535e+01
210 1 1 7.6394400000e-01 5.3386234336e+01 3.2557042805e+01 3.8905311742e+01
211 1 1 7.6394400000e-01 1.8205526487e+01 1.2309134626e+01 4.2305279409e+01
212 1 1 7.6394400000e-01 5.1160559010e+01 6.3212035166e+01 5.4436573268e+01
213 1 1 7.6394400000e-01 2.6905679540e+01 6.1630597491e+01 4.1797571482e+01
214 1 1 7.6394400000e-01 4.5506031663e+01 4.9458268449e+01 6.3957947381e+01
215 1 1 7.6394400000e-01 5.1159785755e+01 6.0022597183e+00 1.6842946729e+01
216 1 1 7.6394400000e-01 5.9583972109e+01 4.7052201871e+01 1.1917951370e+01
217 1 1 7.6394400000e-01 3.9627588563e+01 2.7654058136e+01 2.8086692651e+01
218 1 1 7.6394400000e-01 4.5419504553e+01 1.7408224561e+01 1.9003182715e+01
219 1 1 7.6394400000e-01 3.1514644071e+01 5.2392850633e+01 2.3100396145e+01
220 1 1 7.6394400000e-01 3.8645183699e+01 2.8393809980e+01 3.5372819659e+01
221 1 1 7.6394400000e-01 1.6279988144e+01 6.3182244304e+01 3.2445908508e+01
222 1 1 7.6394400000e-01 2.1617726449e+01 3.3756498852e+01 2.7181381625e+01
223 1 1 7.6394400000e-01 2.0889115765e+01 4.9029329435e+01 3.7910475482e+01
224 1 1 7.6394400000e-01 5.7751748862e+01 3.4172528807e+01 7.0431364569e+00
225 1 1 7.6394400000e-01 5.1796334241e+01 2.7762566238e+01 2.5498943593e+01
226 1 1 7.6394400000e-01 4.4656231910e+01 4.5851665237e+01 9.0049744245e+00
227 1 1 7.6394400000e-01 1.6859011734e-01 5.9102257144e+01 6.5168902139e+00
228 1 1 7.6394400000e-01 4.8583944721e+01 5.5423906465e+01 1.2207401408e+01
229 1 1 7.6394400000e-01 2.8947217614e+00 1.1879819902e+01 2.9106112265e+01
230 1 1 7.6394400000e-01 4.3263496553e+01 3.6446962252e+01 2.9025012948e+01
231 1 1 7.6394400000e-01 1.0658331870e+01 3.4964415048e+00 5.4257981650e+00
232 1 1 7.6394400000e-01 1.4846013703e+01 4.7855284723e+01 6.0725549648e+01
233 1 1 7.6394400000e-01 2.6784643808e+01 3.6027785357e+01 3.1786035970e+01
234 1 1 7.6394400000e-01 8.9953042587e+00 1.4439720625e-01 4.5302369316e-01
235 1 1 7.6394400000e-01 2.4124124884e+01 2.4851931061e+01 2.7469168412e+01
236 1 1 7.6394400000e-01 2.9815680061e+01 2.7850609809e+01 4.7349814893e+01
237 1 1 7.6394400000e-01 4.2857049959e+01 7.0744870576e+00 4.0785335698e+01
238 1 1 7.6394400000e-01 2.6354699826e+01 7.8428760847e+00 4.1410401207e+01
239 1 1 7.6394400000e-01 4.5773921860e+01 5.9533947574e+01 4.4749321599e+01
240 1 1 7.6394400000e-01 3.4033355985e+01 2.4211264203e+01 5.2888001427e+01
241 1 1 7.6394400000e-01 1.6011244715e+01 5.0259014069e+01 2.1889310993e+01
242 1 1 7.6394400000e-01 5.0079193695e+01 2.5699645273e+01 4.6038860238e+01
243 1 1 7.6394400000e-01 6.2961901196e+01 5.4263228051e+01 4.9031160696e+00
244 1 1 7.6394400000e-01 1.3298024668e+01 2.7753222635e+01 3.1182654814e+01
245 1 1 7.6394400000e-01 3.7014989721e+01 3.4000561913e+01 4.4660801371e+01
246 1 1 7.6394400000e-01 1.3666449960e+01 1.3962247597e+01 3.5326580199e+01
247 1 1 7.6394400000e-01 1.3751906712e+01 5.8604756521e+01 2.1040680012e+00
248 1 1 7.6394400000e-01 2.6765758669e+01 1.5475461346e+01 3.2155743505e-01
249 1 1 7.6394400000e-01 1.2100278259e+01 5.1655640380e+00 2.3169751579e+00
250 1 1 7.6394400000e-01 5.2044033308e+01 2.2865845625e+01 3.1029721031e+01
251 1 1 7.6394400000e-01 5.1483973698e+00 4.1811516424e+01 5.9854427968e+01
252 1 1 7.6394400000e-01 1.5457271878e+01 2.7312984075e+01 2.2699570589e+00
253 1 1 7.6394400000e-01 3.0757492798e+01 5.4818397805e+01 2.5736129937e+01
254 1 1 7.6394400000e-01 2.9882402818e+01 4.5049986816e+01 4.1257096315e+01
255 1 1 7.6394400000e-01 1.4888182989e+01 8.6149157590e+00 4.5356851325e+01
256 1 1 7.6394400000e-01 8.0047746048e+00 4.7539565573e+01 2.2886737303e+01
257 1 1 7.6394400000e-01 2.2957616213e+01 3.4042152562e+01 9.7311002963e+00
258 1 1 7.6394400000e-01 2.3210507556e+01 4.3125147326e+01 3.5748299073e+01
259 1 1 7.6394400000e-01 1.1777191214e+01 5.2897457816e+01 5.8892762716e+01
260 1 1 7.6394400000e-01 1.6758871232e+01 1.3510989125e+01 3.3341351584e+01
261 1 1 7.6394400000e-01 2.7857538871e+01 3.4441384486e+00 6.2739576107e+01
262 1 1 7.6394400000e-01 5.8852893370e+01 4.8104836687e+01 2.8081427745e+01
263 1 1 7.6394400000e-01 4.3526582156e+00 5.0823395167e+01 4.4092940566e+01
264 1 1 7.6394400000e-01 2.6448921417e+01 1.5738708722e+01 7.5905946962e+00
265 1 1 7.6394400000e-01 4.5199092258e+01 8.3968420720e-02 2.5787471988e+01
266 1 1 7.6394400000e-01 5.9427191919e+01 2.6470875160e+01 6.2259060880e+01
267 1 1 7.6394400000e-01 1.0718501089e+01 1.2842348595e+01 5.6170680245e+01
268 1 1 7.6394400000e-01 7.7380931828e+00 3.2999577145e+01 4.3361038544e+01
269 1 1 7.6394400000e-01 3.7850385889e+00 5.9807226611e+01 6.3965375486e+01
270 1 1 7.6394400000e-01 1.5291405247e+01 3.4156528088e+01 4.9446611283e+01
271 1 1 7.6394400000e-01 1.7286445770e+01 3.1214503091e+01 2.6317420849e+01
272 1 1 7.6394400000e-01 2.5587533196e+01 2.9699763215e+00 6.8913747310e+00
273 1 1 7.6394400000e-01 3.7381199473e+01 2.0122550157e+01 3.0768530752e+01
274 1 1 7.6394400000e-01 3.2012127927e-01 5.9334951097e+01 3.0123588291e+01
275 1 1 7.6394400000e-01 1.5109695152e+01 6.2441464711e+01 3.4940746770e+01
276 1 1 7.6394400000e-01 5.8355939061e+01 3.0258369078e+01 3.7399330441e+01
277 1 1 7.6394400000e-01 5.2027319757e+01 6.1460234330e+01 4.8677665775e+01
278 1 1 7.6394400000e-01 1.8326713016e+01 1.4356480339e+00 2.8304478233e+01
279 1 1 7.6394400000e-01 1.2343753754e+01 4.5741519573e+01 3.7089996803e+01
280 1 1 7.6394400000e-01 1.6795812762e+01 6.2776247960e+00 2.4910487397e+01
281 1 1 7.6394400000e-01 4.7926565610e+01 6.3555738213e+01 2.5138940810e+01
282 1 1 7.6394400000e-01 7.6116539957e+00 5.4308520592e+01 2.4023427691e+01
283 1 1 7.6394400000e-01 4.3706406608e+01 5.2734111422e+01 5.8278840993e+01
284 1 1 7.6394400000e-01 1.7418781686e+01 5.7866578948e+01 1.6035516986e+00
285 1 1 7.6394400000e-01 4.6711211825e+00 4.7507651959e+01 1.9303997404e+01
286 1 1 7.6394400000e-01 6.3357661842e+01 1.5790889833e+01 2.6504906760e+01
287 1 1 7.6394400000e-01 5.7238264689e+00 2.3740110948e+01 3.1377135844e+01
288 1 1 7.6394400000e-01 1.0534334011e-01 1.0201726885e+01 4.4050263257e+01
289 1 1 7.6394400000e-01 3.6958225958e+00 2.3818429968e+01 4.6812490602e+01
290 1 1 7.6394400000e-01 2.8224929397e+01 2.0824267147e+01 1.7627739541e+00
291 1 1 7.6394400000e-01 4.8547136022e+01 1.9476109184e+01 4.0369776202e+01
292 1 1 7.6394400000e-01 5.6148585556e+00 2.6353405069e+00 4.6361303859e+01
293 1 1 7.6394400000e-01 3.8523339333e+01 1.7146481592e+01 1.1900042783e+01
294 1 1 7.6394400000e-01 2.8116774026e+01 2.9653592175e+01 6.1653679449e+01
295 1 1 7.6394400000e-01 1.9005086053e+01 2.7532325077e+01 4.0179826330e+01
296 1 1 7.6394400000e-01 3.8714438560e+01 1.0642950261e+01 4.8469568643e+01
297 1 1 7.6394400000e-01 2.5504918245e+01 2.2707669471e+01 4.1077837701e+01
298 1 1 7.6394400000e-01 3.8584710550e+01 5.2209632272e+01 4.5713921413e+01
299 1 1 7.6394400000e-01 3.1448203935e+00 1.6476056112e+01 1.7887279751e+01
300 1 1 7.6394400000e-01 4.8757901154e+01 4.3771791088e+01 5.0661430315e+01
301 1 1 7.6394400000e-01 4.8163091106e+01 5.0918740826e+00 2.8767680569e+01
302 1 1 7.6394400000e-01 5.9314865856e+01 6.2070997185e+01 3.8563110928e+01
303 1 1 7.6394400000e-01 5.5942831197e+01 3.3491861323e+01 1.9222445322e+01
304 1 1 7.6394400000e-01 3.3226250723e+01 9.7189670500e-03 1.9758328116e+01
305 1 1 7.6394400000e-01 5.5406736094e+01 4.6144387650e+01 5.8675502358e+01
306 1 1 7.6394400000e-01 6.3429545547e+00 6.2287561920e+01 5.6274580184e+01
307 1 1 7.6394400000e-01 7.9543243375e+00 1.8506328492e+01 5.3081576876e+01
308 1 1 7.6394400000e-01 3.1172000866e+01 8.7110103731e-01 4.7402204291e+01
309 1 1 7.6394400000e-01 6.2127773472e+01 1.8576932163e+01 3.2124544338e+01
310 1 1 7.6394400000e-01 5.1121738294e+01 5.8593880893e+01 2.0834960085e+01
311 1 1 7.6394400000e-01 5.0154845681e+00 3.9971183104e+00 5.6287508285e+01
312 1 1 7.6394400000e-01 2.8486719810e+00 6.3029898045e+01 4.1203720598e+01
313 1 1 7.6394400000e-01 3.2326023516e+01 4.8314009888e+01 5.1341413006e+01
314 1 1 7.6394400000e-01 3.4768004915e+01 6.7924360257e+00 4.6288636450e+01
315 1 1 7.6394400000e-01 2.9749969525e+01 1.3811845577e+01 9.9383144393e+00
316 1 1 7.6394400000e-01 6.1191063095e+01 5.7372570031e+01 1.1606269131e+00
317 1 1 7.6394400000e-01 1.5592614250e+01 2.1608580954e+01 2.3976821370e+01
318 1 1 7.6394400000e-01 3.1868884531e+01 2.7033676887e+01 1.7173682828e+01
319 1 1 7.6394400000e-01 7.3691241923e-01 4.6985184652e-02 5.5245499507e+01
320 1 1 7.6394400000e-01 1.9098616506e+01 2.7093293397e+01 4.2520493181e+01
321 1 1 7.6394400000e-01 9.1748181781e+00 4.9251718384e+01 6.0072379729e+01
322 1 1 7.6394400000e-01 1.6202522336e+01 5.8413850848e+01 2.7721261615e+01
323 1 1 7.6394400000e-01 5.5998748060e+01 9.5716642528e+00 2.5737867571e+01
324 1 1 7.6394400000e-01 5.7419907604e+01 5.2741422678e+01 2.6071538304e+01
325 1 1 7.6394400000e-01 2.3347294299e+01 8.7624862008e-01 7.9311427549e+00
326 1 1 7.6394400000e-01 5.6385668893e+01 3.6558522385e+01 3.8832777586e+01
327 1 1 7.6394400000e-01 4.6207753966e+01 4.8607697525e+01 2.9361691304e+01
328 1 1 7.6394400000e-01 3.5573603116e+01 4.9375478318e+01 1.3676060602e+00
329 1 1 7.6394400000e-01 5.4263117351e+01 2.6627699017e+01 4.1663443196e+01
330 1 1 7.6394400000e-01 2.0967861749e+01 3.1996041641e+01 2.7960860558e+01
331 1 1 7.6394400000e-01 6.3370628267e+01 4.5342680747e+01 4.5822980121e+01
332 1 1 7.6394400000e-01 6.2437634463e+01 2.1228569011e+01 4.4153885693e+00
333 1 1 7.6394400000e-01 5.3794276414e+01 4.3585995169e+01 2.1241800075e+01
334 1 1 7.6394400000e-01 3.2489782756e+01 1.8193404178e+01 2.1712647864e+01
335 1 1 7.6394400000e-01 3.0921052662e+01 1.4980833525e-01 1.2038927400e+01
336 1 1 7.6394400000e-01 1.8270387307e+01 5.1817265389e+01 3.2455780837e+01
337 1 1 7.6394400000e-01 4.2046937972e+01 3.9973645848e+01 4.7859814162e+01
338 1 1 7.6394400000e-01 3.9069810208e+01 5.8449841766e+01 4.7505938143e+01
339 1 1 7.6394400000e-01 1.5498180787e+01 5.6710422115e+01 5.2282229055e+01
340 1 1 7.6394400000e-01 6.0727345432e+01 3.9121625442e+01 4.4310665281e+01
341 1 1 7.6394400000e-01 5.9515551655e+01 2.4025484668e+01 5.9021312510e+01
342 1 1 7.6394400000e-01 4.1289200398e+01 6.1529206928e+01 2.5104738642e+01
343 1 1 7.6394400000e-01 1.1077137932e+01 6.6224257655e+00 5.8794759656e+01
344 1 1 7.6394400000e-01 5.0473295573e+01 4.7572793976e+00 2.1431076145e+00
345 1 1 7.6394400000e-01 6.6707969480e-02 5.3860187291e+01 4.4651391699e+01
346 1 1 7.6394400000e-01 5.3799692649e+01 4.9757938107e+01 2.3082094849e+01
347 1 1 7.6394400000e-01 1.5299862168e+01 4.5681593967e+01 4.7241203687e+01
348 1 1 7.6394400000e-01 4.2399594026e+01 8.1308935836e+00 5.1516458213e+01
349 1 1 7.6394400000e-01 5.5460453058e+01 3.9952646762e+01 3.5542471431e+01
350 1 1 7.6394400000e-01 1.2307883343e+01 6.0494158614e+01 7.5144847409e+00
351 1 1 7.6394400000e-01 6.2883148899e+01 4.1262454914e+01 1.7681098693e+01
352 1 1 7.6394400000e-01 6.0680038586e+01 3.8201626106e+01 1.1355503020e+01
353 1 1 7.6394400000e-01 4.2477928157e+01 1.6076781233e+01 6.7165391525e+00
354 1 1 7.6394400000e-01 4.0114613049e+01 4.0550234075e+00 3.8317533254e+01
355 1 1 7.6394400000e-01 4.2367298815e+01 4.4237238382e+00 1.4571751047e+01
356 1 1 7.6394400000e-01 6.3014769242e+01 3.7582361329e+01 3.1237243755e+01
357 1 1 7.6394400000e-01 5.9245900368e+01 8.1675584606e+00 4.0485142643e+01
358 1 1 7.6394400000e-01 2.6670469473e+00 1.6739534059e+01 6.8881076659e+00
359 1 1 7.6394400000e-01 5.9319123279e+01 1.5358426410e+00 5.6088191241e+01
360 1 1 7.6394400000e-01 5.8566197569e+01 4.7384790753e+01 5.1427997615e+00
361 1 1 7.6394400000e-01 4.7940979744e+01 2.6274515956e+00 6.0385671768e+00
362 1 1 7.6394400000e-01 9.4048658084e+00 2.1973231773e+01 1.8466357445e+01
363 1 1 7.6394400000e-01 2.1130979267e+00 4.3651833220e+01 4.5850555173e+01
364 1 1 7.6394400000e-01 6.2391524315e+01 1.3788156228e+01 5.7182970786e+01
365 1 1 7.6394400000e-01 5.0908771855e+01 4.5900286074e+01 4.3923361069e+01
366 1 1 7.6394400000e-01 8.5225243596e+00 2.5353506428e+01 5.0569367360e+01
367 1 1 7.6394400000e-01 1.1967414391e+01 4.5465182240e+01 1.5619923206e+01
368 1 1 7.6394400000e-01 1.4413146396e+01 1.0501945064e+01 1.6170832283e+01
369 1 1 7.6394400000e-01 1.5179495327e+01 2.8333393756e+01 3.1410085716e+01
370 1 1 7.6394400000e-01 5.2770874973e+01 3.0394234875e+01 3.2143201016e+01
371 1 1 7.6394400000e-01 3.1705639253e+00 3.2695465143e+01 2.5986927148e+01
372 1 1 7.6394400000e-01 1.6731371941e+01 3.5370379506e+01 3.9869981904e+01
373 1 1 7.6394400000e-01 5.1015536194e+01 2.7645089793e+01 2.3857223224e+01
374 1 1 7.6394400000e-01 3.2672762090e+01 2.9878881963e+01 7.1603261568e+00
375 1 1 7.6394400000e-01 1.4958810495e+01 3.6907083158e+01 5.3021787700e+01
376 1 1 7.6394400000e-01 4.0798403188e+01 1.4442725683e+01 2.2238304037e+01
377 1 1 7.6394400000e-01 1.7865094671e+00 2.9723970752e+01 8.7062404304e+00
378 1 1 7.6394400000e-01 5.7754648509e+01 1.5093344947e+01 1.7375656805e+01
379 1 1 7.6394400000e-01 3.4814539563e+01 3.9598662123e+01 4.7741637950e+01
380 1 1 7.6394400000e-01 2.3374128784e+01 2.7190223656e+01 5.4228448051e+01
381 1 1 7.6394400000e-01 1.5635094394e+01 5.8011966652e+01 3.5123613699e+00
382 1 1 7.6394400000e-01 5.9525733463e+01 3.6743231488e+01 2.4315259571e+00
383 1 1 7.6394400000e-01 5.6461478062e+01 3.7991585033e+01 3.3711796565e+01
384 1 1 7.6394400000e-01 4.4752862851e+01 2.2888353760e+01 2.7140808759e+01
385 1 1 7.6394400000e-01 6.0045627798e+01 5.1664226256e+01 3.6968943290e+01
386 1 1 7.6394400000e-01 5.7407180474e+01 1.0175880702e+01 3.7611419172e+01
387 1 1 7.6394400000e-01 4.8029922743e+01 2.9208900617e+00 2.3016065653e+00
388 1 1 7.6394400000e-01 1.1526647054e+01 8.6052320325e+00 3.9731971654e+01
389 1 1 7.6394400000e-01 3.9435885823e+00 1.6494934712e+01 6.2102509411e+01
390 1 1 7.6394400000e-01 2.2077374673e+01 3.9798457053e+01 3.9829440230e+00
391 1 1 7.6394400000e-01 4.1430436047e+01 2.8191560040e+01 2.1836709780e+01
392 1 1 7.6394400000e-01 2.5554887471e+01 9.2567492072e+00 6.7866329447e+00
393 1 1 7.6394400000e-01 1.0406874447e+01 1.4513287905e+01 5.5192110925e+01
394 1 1 7.6394400000e-01 2.0749175842e+01 4.8674128720e+01 6.3697740076e+00
395 1 1 7.6394400000e-01 4.0047337063e+01 1.6705847077e+01 1.8258137437e+01
396 1 1 7.6394400000e-01 2.1483617829e+01 3.7829234776e+01 5.9970334904e+01
397 1 1 7.6394400000e-01 2.6124382755e+00 4.2271250378e+01 2.1716858682e+01
398 1 1 7.6394400000e-01 1.3573339009e+01 2.7597875120e+01 2.1710009641e+01
399 1 1 7.6394400000e-01 1.2255065052e+01 4.7415666102e+01 7.0248822443e-01
400 1 1 7.6394400000e-01 5.5955786876e+01 3.5406898920e+00 4.3277224405e+01
401 1 1 7.6394400000e-01 3.4155628314e+00 2.3715348455e+00 1.0785738632e+01
402 1 1 7.6394400000e-01 3.5600950983e+01 3.4444920099e+01 5.3917496006e+00
403 1 1 7.6394400000e-01 4.1100169333e+01 1.5828947974e+01 1.9488949342e+01
404 1 1 7.6394400000e-01 4.8527396583e+01 4.0514289309e+01 5.3028841877e+01
405 1 1 7.6394400000e-01 4.3461968891e+01 3.5781326880e+01 7.3489829402e+00
406 1 1 7.6394400000e-01 6.4662725617e+00 5.0236420332e+01 1.1289918654e+01
407 1 1 7.6394400000e-01 7.3963628570e+00 2.2507643453e+01 5.1505150867e+01
408 1 1 7.6394400000e-01 1.9242715921e+01 1.6469289182e+01 3.6968816364e+01
409 1 1 7.6394400000e-01 1.6211685598e+01 9.1735567149e-01 3.7830610152e+01
410 1 1 7.6394400000e-01 1.6301879444e+01 2.7146452988e+01 6.2778956611e+01
411 1 1 7.6394400000e-01 2.4536825766e+01 6.0760408663e+01 6.2571829729e+01
412 1 1 7.6394400000e-01 6.2335097155e+01 2.2970950175e+01 3.3537822530e+01
413 1 1 7.6394400000e-01 1.7994204601e+01 4.3401008404e+01 1.0588313172e+01
414 1 1 7.6394400000e-01 2.3950558124e+00 3.8634762560e+01 4.9832075878e+01
415 1 1 7.6394400000e-01 4.8558552780e+00 4.5770498266e+01 5.0042349738e+01
416 1 1 7.6394400000e-01 4.1806126747e+01 3.8198940536e+01 1.0139921578e+01
417 1 1 7.6394400000e-01 4.2366709078e+01 5.6927676211e+01 2.8250767596e+01
418 1 1 7.6394400000e-01 7.7714918281e+00 3.6541750435e+01 3.3212662544e+00
419 1 1 7.6394400000e-01 7.5478663752e+00 6.3447415990e+00 2.9010277967e+01
420 1 1 7.6394400000e-01 5.7891573978e+01 2.4956219811e+01 3.8026059063e+01
421 1 1 7.6394400000e-01 4.3238109197e+01 4.0188623407e+01 1.5822665244e+01
422 1 1 7.6394400000e-01 1.3697826962e+01 3.5535677379e+00 2.9631726351e+00
423 1 1 7.6394400000e-01 1.4727471556e+01 2.2699054432e+01 4.8615219910e+00
424 1 1 7.6394400000e-01 6.4072823067e-01 1.1812396931e+01 4.0144748180e+01
425 1 1 7.6394400000e-01 4.7959430862e+01 8.8003305973e+00 3.8460706273e+01
426 1 1 7.6394400000e-01 5.4892212373e+01 4.1806252219e+00 4.2015943481e+01
427 1 1 7.6394400000e-01 5.5278246613e+01 3.3795481907e+01 4.7643162863e+01
428 1 1 7.6394400000e-01 5.1318837635e+01 9.8648514853e+00 1.7424684996e+01
429 1 1 7.6394400000e-01 1.4197477337e+01 4.6275030565e+01 1.1328437912e+01
430 1 1 7.6394400000e-01 1.8952501761e+01 4.5409091026e+01 3.6084762500e+01
431 1 1 7.6394400000e-01 5.8814431003e+01 4.3917098278e+01 4.8708765868e+01
432 1 1 7.6394400000e-01 4.9787506480e+01 4.0683539963e+01 4.2774385201e+01
433 1 1 7.6394400000e-01 3.9696885317e+01 3.1541124731e+01 1.8379429750e+00
434 1 1 7.6394400000e-01 2.9296136071e+01 5.0316794252e+01 5.0648207410e+00
435 1 1 7.6394400000e-01 5.1786613500e+01 5.5779999089e+01 2.5378841223e+01
436 1 1 7.6394400000e-01 6.1690929210e+01 5.2686558605e+01 3.4925968902e+01
437 1 1 7.6394400000e-01 1.0134385464e+01 4.4373834247e+01 1.0064346832e+01
438 1 1 7.6394400000e-01 5.2355221941e+01 5.8026994623e+01 3.1172680457e+01
439 1 1 7.6394400000e-01 1.5528574559e+01 4.0226994535e+00 2.8146917230e+01
440 1 1 7.6394400000e-01 1.7198929193e+01 5.6292397569e+01 2.3167158555e+01
441 1 1 7.6394400000e-01 2.3635549732e+01 5.9928151040e+01 5.2498894811e+01
442 1 1 7.6394400000e-01 4.4924485317e+01 4.1262949287e+01 6.1901451120e+01
443 1 1 7.6394400000e-01 3.6837175168e+01 2.6344193531e+01 5.9669188250e+01
444 1 1 7.6394400000e-01 5.5307823424e+01 3.2029386874e+01 4.3606749872e+01
445 1 1 7.6394400000e-01 5.9691995901e+01 4.5089241790e+01 1.0092579051e+01
446 1 1 7.6394400000e-01 4.6858701902e+01 5.0773665078e+01 3.0316849846e+01
447 1 1 7.6394400000e-01 1.4660727061e+01 4.5490661714e+01 4.8800591768e+01
448 1 1 7.6394400000e-01 6.0807699891e+01 9.5763394776e+00 2.9319138307e+01
449 1 1 7.6394400000e-01 6.2663350439e+01 4.5967364966e+01 5.4195193989e+01
450 1 1 7.6394400000e-01 1.0044220226e+01 3.6432844166e+01 5.6121965376e+01
451 1 1 7.6394400000e-01 3.3179437334e+00 2.3689042955e+01 4.5123494861e+01
452 1 1 7.6394400000e-01 6.3169514449e+01 5.7805112859e+00 1.5440373127e+00
453 1 1 7.6394400000e-01 3.4144294550e+00 4.5256793654e+01 2.5710211456e+01
454 1 1 7.6394400000e-01 1.4468383442e+01 1.8757771270e+01 8.6642161181e+00
455 1 1 7.6394400000e-01 1.6486831297e+01 4.0211359554e+01 5.8166933473e+01
456 1 1 7.6394400000e-01 1.7635182672e+01 2.6366050385e+01 4.0305614314e+01
457 1 1 7.6394400000e-01 2.1563063987e+01 5.4144967844e+01 1.4673928541e+01
458 1 1 7.6394400000e-01 3.3118880900e+01 4.4633893935e+01 7.2735149090e+00
459 1 1 7.6394400000e-01 1.4936341044e+01 4.5317185611e+01 3.5264657460e+01
460 1 1 7.6394400000e-01 1.6997815838e+01 8.2232399285e+00 3.3541295467e+01
461 1 1 7.6394400000e-01 4.1149858973e+01 2.3248886674e+01 4.3929578111e+01
462 1 1 7.6394400000e-01 3.6292372240e+01 1.4575043292e+01 5.8432586584e+01
463 1 1 7.6394400000e-01 1.7968759148e+01 1.7065038242e+01 6.2003162377e+01
464 1 1 7.6394400000e-01 1.0600314953e+01 5.8487064363e+01 4.4996502544e+01
465 1 1 7.6394400000e-01 1.0995788275e+01 6.0790831043e+01 3.8547231044e+01
466 1 1 7.6394400000e-01 2.5497454847e+01 5.2022107802e+01 5.2949445420e+01
467 1 1 7.6394400000e-01 6.0598554732e+01 4.9766959724e+01 3.9732300993e+01
468 1 1 7.6394400000e-01 9.3251525528e+00 5.1213266111e+01 6.2780705928e+01
469 1 1 7.6394400000e-01 2.1622350065e+01 4.2171587609e+01 4.7562926188e+01
470 1 1 7.6394400000e-01 5.2198229927e+01 6.5057041118e+00 1.2771924905e+01
471 1 1 7.6394400000e-01 5.4065805058e+01 4.3157471071e+00 9.4468902186e+00
472 1 1 7.6394400000e-01 5.4111327830e+00 4.8202525984e+01 5.5843117508e+01
473 1 1 7.6394400000e-01 4.1054265562e+01 2.5284854579e+01 1.4787191134e+01
474 1 1 7.6394400000e-01 5.5631284658e+01 3.8750608740e+01 5.9258988703e+00
475 1 1 7.6394400000e-01 2.8478196532e+01 5.2794408030e+01 5.7833019274e+00
476 1 1 7.6394400000e-01 5.2207732191e+01 4.4698889750e+01 1.8216717095e+01
477 1 1 7.6394400000e-01 4.2516280444e+01 4.9384068271e+01 8.4504024209e+00
478 1 1 7.6394400000e-01 3.7925614590e+00 4.5093257880e+01 3.5748142327e+01
479 1 1 7.6394400000e-01 4.5555138437e+01 4.8834574086e+01 5.6306367843e+01
480 1 1 7.6394400000e-01 2.8490782908e+01 2.5303346090e+01 4.3622308438e+01
481 1 1 7.6394400000e-01 2.7013192864e+01 4.4876486798e+01 4.6649821916e+01
482 1 1 7.6394400000e-01 4.9564508399e+01 4.1798488227e+01 3.9029539380e-01
483 1 1 7.6394400000e-01 3.8362554359e+01 3.8556229438e+01 2.3730752393e+01
484 1 1 7.6394400000e-01 4.7143121099e+01 3.6498316075e+01 5.0237315824e+01
485 1 1 7.6394400000e-01 1.3279846480e+01 4.6894923445e+01 3.3176142666e+01
486 1 1 7.6394400000e-01 4.2509713556e+01 2.2743907439e-01 5.9078315269e+01
487 1 1 7.6394400000e-01 5.6777665277e+00 1.3003610632e+01 1.1398712810e+01
488 1 1 7.6394400000e-01 1.7410111127e+01 1.5243850549e+01 1.2293252388e+01
489 1 1 7.6394400000e-01 5.9951360742e+01 2.5153049809e+01 3.1428295098e+01
490 1 1 7.6394400000e-01 2.4282499942e+01 5.3706817980e+01 4.4867186259e+01
491 1 1 7.6394400000e-01 4.6309267251e+01 1.8516126802e+01 1.3590439136e+01
492 1 1 7.6394400000e-01 6.1544883792e+01 6.3971970562e+01 5.9592416691e+01
493 1 1 7.6394400000e-01 2.6338251278e+01 2.9700864276e+01 5.3145451717e+01
494 1 1 7.6394400000e-01 4.8941225921e+00 1.5946982268e+01 2.8123911474e+01
495 1 1 7.6394400000e-01 3.1186255130e+01 1.2833605358e+01 1.1783872222e+01
496 1 1 7.6394400000e-01 5.3586596834e+01 1.9569722719e+01 6.1727477107e+01
497 1 1 7.6394400000e-01 5.5381404998e+01 5.1489658093e+01 5.5561877204e+01
498 1 1 7.6394400000e-01 4.4206755970e+01 2.7961324006e+01 4.3369377823e+01
499 1 1 7.6394400000e-01 3.7142247525e+00 4.6607185535e+01 2.4566731784e+01
500 1 1 7.6394400000e-01 5.3574117634e+01 3.3408092875e+01 5.6962470837e+01
501 1 1 7.6394400000e-01 4.8986722935e+00 2.2725944028e+01 3.5836776383e+01
502 1 1 7.6394400000e-01 5.6343932251e+01 8.7987747511e+00 5.4321438786e+00
503 1 1 7.6394400000e-01 2.0973692514e+01 4.6544485931e+01 2.1252374657e+01
504 1 1 7.6394400000e-01 2.3681652044e+01 3.7064105668e+01 5.0643383020e+01
505 1 1 7.6394400000e-01 1.9750079549e+01 4.6255024889e+01 3.0360524137e+01
506 1 1 7.6394400000e-01 4.6443685591e+00 5.6157223344e+01 2.1241233744e+00
507 1 1 7.6394400000e-01 1.7457662038e+01 1.9332911784e+01 3.8271112485e+01
508 1 1 7.6394400000e-01 4.9457469064e+01 6.2323182528e+00 2.5923517251e+01
509 1 1 7.6394400000e-01 5.8692800497e+01 2.4620220010e+01 3.6134074003e+01
510 1 1 7.6394400000e-01 4.0991135857e+01 6.9496535088e+00 5.8134588680e+01
511 1 1 7.6394400000e-01 1.4828437931e+01 4.1814840217e+01 6.0949058705e+01
512 1 1 7.6394400000e-01 2.3602819044e+01 2.1602526827e+01 2.9005375439e+01
513 1 1 7.6394400000e-01 2.2604218014e+01 5.7243172967e+01 1.0050284184e+01
514 1 1 7.6394400000e-01 2.0425620923e+01 1.5405183721e+01 2.9486095206e+00
515 1 1 7.6394400000e-01 6.2299788600e+01 1.5644872271e+01 3.8710371613e+01
516 1 1 7.6394400000e-01 5.7486894741e+01 6.0866204186e+01 2.9778144122e+01
517 1 1 7.6394400000e-01 4.7937300347e+01 2.9663492775e+01 6.3019634538e+01
518 1 1 7.6394400000e-01 3.4064628097e+01 2.7287270732e+01 1.1628189565e+01
519 1 1 7.6394400000e-01 5.2453539072e+01 1.4961527702e+01 3.0407566829e+01
520 1 1 7.6394400000e-01 5.6801478654e+01 2.6470913878e+00 3.5792707112e+01
521 1 1 7.6394400000e-01 4.6336105071e+01 4.1986942910e+01 2.7033462334e+00
522 1 1 7.6394400000e-01 1.9077984200e+00 5.9281485027e+01 6.2433026777e+01
523 1 1 7.6394400000e-01 1.2954023638e+01 6.2508519008e+01 2.3209074809e+01
524 1 1 7.6394400000e-01 1.5075744394e+00 5.2013121205e+01 4.1162509862e+01
525 1 1 7.6394400000e-01 5.2605294193e+01 3.2018391707e-01 1.3714091964e+01
526 1 1 7.6394400000e-01 3.8252281938e+01 5.0256124402e+01 5.7224533885e+01
527 1 1 7.6394400000e-01 1.4850856030e+01 6.1742341111e+01 5.8413180718e+01
528 1 1 7.6394400000e-01 4.0372104932e+01 1.1041061337e+01 4.3248034621e+01
529 1 1 7.6394400000e-01 3.2024494507e+01 2.5812037193e+01 3.8531717819e+01
530 1 1 7.6394400000e-01 4.0595078634e+01 1.9104046087e+01 4.0382741108e+00
531 1 1 7.6394400000e-01 3.4832328284e+01 6.3236003680e+00 5.2931221724e+01
532 1 1 7.6394400000e-01 3.0514982558e+01 3.2855613341e+01 1.6632742184e+01
533 1 1 7.6394400000e-01 7.0037035492e-01 5.8966309289e+01 4.4235862584e+01
534 1 1 7.6394400000e-01 3.9969799221e+01 1.8766066641e+01 2.7661950670e+01
535 1 1 7.6394400000e-01 3.4836329896e+01 3.6750085274e+01 4.4199523520e+01
536 1 1 7.6394400000e-01 8.3206174952e+00 2.7363315053e+01 1.7814133698e+00
537 1 1 7.6394400000e-01 3.0532468276e-01 2.3741182423e+01 4.0844738433e+01
538 1 1 7.6394400000e-01 2.6254456920e+01 6.0756609559e+01 5.7363985184e+01
539 1 1 7.6394400000e-01 6.9708691290e+00 6.1655576152e+00 8.1020076833e+00
540 1 1 7.6394400000e-01 2.2628123298e+01 5.1039805109e+01 2.8287219487e+01
541 1 1 7.6394400000e-01 3.1821321351e+01 1.6116487844e+01 2.3776489988e+01
542 1 1 7.6394400000e-01 1.2855702316e+01 1.2690553310e+01 2.7686648556e+01
543 1 1 7.6394400000e-01 1.3154415458e+01 5.7122134640e+01 2.8205959596e+01
544 1 1 7.6394400000e-01 4.0061610421e+01 2.0001646877e+01 2.5137546524e+01
545 1 1 7.6394400000e-01 5.9068142598e+01 5.2614877386e+01 4.9716969012e+00
546 1 1 7.6394400000e-01 5.7356237563e+01 3.3807847234e+01 8.4151746278e+00
547 1 1 7.6394400000e-01 5.1124827722e+01 6.3849477097e+01 2.3096494678e+01
548 1 1 7.6394400000e-01 4.0190050287e+01 2.9638998804e+01 1.5222703035e+00
549 1 1 7.6394400000e-01 4.5103091557e+00 5.5060107509e+01 6.3351038306e+01
550 1 1 7.6394400000e-01 2.8518697958e+01 6.0328935146e+01 6.0151494940e+00
551 1 1 7.6394400000e-01 5.7192173048e+01 7.7763051624e+00 2.9020943435e+01
552 1 1 7.6394400000e-01 2.9561162771e+01 4.7143514800e+01 5.7674514990e+01
553 1 1 7.6394400000e-01 4.6737171895e+01 5.7646119439e+01 2.4494535014e+01
554 1 1 7.6394400000e-01 8.9750825779e+00 5.4580139814e+01 1.1124470730e+01
555 1 1 7.6394400000e-01 2.3452585979e+01 1.2591168668e+01 6.0133655930e+01
556 1 1 7.6394400000e-01 5.4460661182e+01 2.6849987217e+01 2.8728552929e+01
557 1 1 7.6394400000e-01 2.9496078593e+01 3.5746976776e+01 1.5793170127e-01
558 1 1 7.6394400000e-01 1.1603229722e+01 3.8973807521e+00 1.0810647646e+01
559 1 1 7.6394400000e-01 1.5264208856e+01 2.5862041472e+01 5.6996521367e+01
560 1 1 7.6394400000e-01 5.0189418880e+01 4.7682936606e+01 3.0477644751e+01
561 1 1 7.6394400000e-01 5.3798936691e+00 2.9389357216e+01 5.1677871014e+01
562 1 1 7.6394400000e-01 4.6690648876e+00 4.1326520181e+00 2.8524990094e+01
563 1 1 7.6394400000e-01 3.9108624293e+01 5.2116090798e+01 2.0547498260e+00
564 1 1 7.6394400000e-01 1.7561814695e+01 3.1925300375e+01 4.2085883710e+01
565 1 1 7.6394400000e-01 1.9184744929e+01 2.5092668790e+01 6.6732399802e+00
566 1 1 7.6394400000e-01 5.6280711739e+01 1.5841629978e+01 4.9618092426e+01
567 1 1 7.6394400000e-01 3.0549555377e+01 2.5892092171e+01 4.5779213726e+01
568 1 1 7.6394400000e-01 3.7969827673e+00 1.8384093350e+01 1.1561867549e+01
569 1 1 7.6394400000e-01 4.2829361369e+01 5.1452534207e+01 1.2583305247e+01
570 1 1 7.6394400000e-01 1.1674458249e+01 1.1974385323e+01 4.2256625863e+01
571 1 1 7.6394400000e-01 3.5594810455e+01 5.5054245382e+01 1.6664851911e+01
572 1 1 7.6394400000e-01 1.4796786133e+01 5.2460061385e+01 5.7983064954e+01
573 1 1 7.6394400000e-01 3.5347043709e+00 6.2521826968e+01 4.8008853276e+01
574 1 1 7.6394400000e-01 1.6538279493e+01 1.1517358353e+01 3.7292840254e+01
575 1 1 7.6394400000e-01 9.8024093510e+00 2.4893187452e+01 5.0235218081e+01
576 1 1 7.6394400000e-01 2.1944470416e+01 1.8190897818e+01 5.3543217112e+01
577 1 1 7.6394400000e-01 4.9104010003e+01 1.2649036561e+01 5.4644716797e+01
578 1 1 7.6394400000e-01 4.2022378505e+01 3.6398949690e+01 2.7391236477e+01
579 1 1 7.6394400000e-01 1.6145581949e+01 5.4403179434e+01 8.4737342510e+00
580 1 1 7.6394400000e-01 6.0579305872e+01 2.1771519878e+00 3.3458611203e+01
581 1 1 7.6394400000e-01 4.5852413494e+01 5.8387445367e+01 4.9023003911e+01
582 1 1 7.6394400000e-01 4.2486704947e+01 1.9420585643e+01 1.1010619840e+01
583 1 1 7.6394400000e-01 1.9302851057e+01 4.6459174844e+01 1.7950110347e+01
584 1 1 7.6394400000e-01 2.9739048686e+00 2.5032444933e+01 4.9722428774e+01
585 1 1 7.6394400000e-01 4.6121545083e+01 2.6429863032e+01 4.6614093448e+01
586 1 1 7.6394400000e-01 2.4310821712e+00 2.9141594186e+00 8.9724005071e+00
587 1 1 7.6394400000e-01 2.6843622000e+00 6.6719413724e+00 4.3000640880e+01
588 1 1 7.6394400000e-01 2.4743080470e+01 5.2798735333e+01 3.0849183092e+01
589 1 1 7.6394400000e-01 2.8142505902e+01 5.7762956537e+01 3.3411529965e+01
590 1 1 7.6394400000e-01 4.6174876175e+01 3.3071797396e+01 4.0144188133e+01
591 1 1 7.6394400000e-01 4.4690515019e+01 2.0933771311e+01 3.2220740144e+01
592 1 1 7.6394400000e-01 3.3324578222e+01 3.4616772945e+00 4.7792274828e+01
593 1 1 7.6394400000e-01 6.0726048799e+01 3.4259069404e+01 4.9255125631e+01
594 1 1 7.6394400000e-01 2.7117944575e-01 3.9385565677e+01 3.0081351080e+01
595 1 1 7.6394400000e-01 4.8525810047e+00 9.1080663287e+00 6.2489880514e+01
596 1 1 7.6394400000e-01 5.7671634015e+01 5.6934861044e+01 2.7794985961e+01
597 1 1 7.6394400000e-01 1.5561306637e+01 2.3589566923e+01 4.9175547890e+01
598 1 1 7.6394400000e-01 9.4415658234e+00 4.5587873068e+01 6.0368783428e+01
599 1 1 7.6394400000e-01 4.4734422220e+01 4.6089631367e+01 3.6597724844e+01
600 1 1 7.6394400000e-01 5.4795452866e+01 1.6653836403e+00 7.8155422267e+00
601 1 1 7.6394400000e-01 1.4573903696e+01 2.7982228615e+01 9.4981553223e+00
602 1 1 7.6394400000e-01 2.2818726150e+01 5.3401045966e+01 2.3936389428e+00
603 1 1 7.6394400000e-01 4.2226051611e+01 6.2665995545e+01 4.8048037642e+01
604 1 1 7.6394400000e-01 4.2802030279e+01 3.1228923740e+01 2.2724897102e+00
605 1 1 7.6394400000e-01 2.9462011662e+01 1.1857048696e+01 4.3211393704e+01
606 1 1 7.6394400000e-01 5.4342957046e+01 1.1572761392e+01 1.5634798387e+01
607 1 1 7.6394400000e-01 2.5207201926e+01 3.1102782610e+01 6.2204454118e+00
608 1 1 7.6394400000e-01 7.2845921953e-02 2.8145577768e+01 2.2074826228e+01
609 1 1 7.6394400000e-01 3.4138929734e+01 1.7076855760e+01 4.3900555727e+01
610 1 1 7.6394400000e-01 6.1626093688e+01 5.0331680276e+01 5.2080570301e+01
611 1 1 7.6394400000e-01 4.6255827710e+01 1.2262501735e+01 5.7550103010e+00
612 1 1 7.6394400000e-01 5.0847595565e+01 3.6940430326e+01 4.8432466918e+01
613 1 1 7.6394400000e-01 3.9351438342e+01 3.8475918249e+01 1.7522269811e+01
614 1 1 7.6394400000e-01 5.6478836015e+01 5.5179814086e+01 4.5045015972e+01
615 1 1 7.6394400000e-01 4.5324938010e+01 3.0386142024e+01 2.3700130864e+01
616 1 1 7.6394400000e-01 5.6375342830e+01 6.3580078256e+01 3.1622892829e+01
617 1 1 7.6394400000e-01 9.6508589177e-01 4.3283609977e+01 3.0791698704e+01
618 1 1 7.6394400000e-01 3.5026329205e+00 4.1411258511e+01 1.0547810379e+00
619 1 1 7.6394400000e-01 1.2606098394e+00 5.8469771014e+01 1.9411264640e+01
620 1 1 7.6394400000e-01 1.9902975544e+01 5.1912012701e+01 1.2629471466e+01
621 1 1 7.6394400000e-01 6.1511410073e+01 5.7797620658e+01 1.2613930136e+01
622 1 1 7.6394400000e-01 5.8860930303e+01 7.8812389025e+00 3.5368345665e+00
623 1 1 7.6394400000e-01 1.6734761349e+01 3.2142477366e+01 1.0142625675e+00
624 1 1 7.6394400000e-01 2.6493553673e+01 2.0780164673e+01 3.4711385425e+01
625 1 1 7.6394400000e-01 6.0959688645e+01 1.8323570684e+01 2.8184342385e+01
626 1 1 7.6394400000e-01 4.0750202675e+01 2.9475986778e+01 2.1549827833e+01
627 1 1 7.6394400000e-01 2.1158205202e+01 9.4163271685e+00 3.0184989455e+01
628 1 1 7.6394400000e-01 2.8615789438e+01 1.5946482180e+01 5.9306027677e+00
629 1 1 7.6394400000e-01 1.7888768840e+01 3.4028338291e+01 5.9427667826e+01
630 1 1 7.6394400000e-01 1.4574224874e+01 5.4783098446e+00 4.2230982129e+01
631 1 1 7.6394400000e-01 4.6392098759e+01 2.3046451343e+01 3.8197385654e+01
632 1 1 7.6394400000e-01 4.2320680704e+01 3.6590151949e+01 3.1134314040e+01
633 1 1 7.6394400000e-01 3.3888133380e+01 3.0639688179e+00 5.9160621074e+01
634 1 1 7.6394400000e-01 9.5247552523e-01 1.7563669651e+01 1.7830599169e+01
635 1 1 7.6394400000e-01 5.5717071153e+01 2.3323013282e+01 4.4042476066e+01
636 1 1 7.6394400000e-01 2.2338030031e+01 9.9363427051e+00 3.1919854701e+01
637 1 1 7.6394400000e-01 1.0696059929e+01 4.8371590308e+01 4.4343232919e+01
638 1 1 7.6394400000e-01 4.1888582917e+01 3.2071334361e+01 2.6265385681e+01
639 1 1 7.6394400000e-01 4.9285437342e+01 5.4217541082e+01 2.3883021688e+01
640 1 1 7.6394400000e-01 5.6696192004e+01 1.2991922003e+01 4.2501112082e+00
641 1 1 7.6394400000e-01 3.1506654741e+01 5.0034888114e+01 3.2290470610e+01
642 1 1 7.6394400000e-01 3.8223740571e+01 2.0487814282e+01 5.3425922344e+01
643 1 1 7.6394400000e-01 5.7680602557e+01 6.2102092072e+01 5.0828565317e+01
644 1 1 7.6394400000e-01 1.6574871400e+01 5.7975626344e+01 3.7716788082e+01
645 1 1 7.6394400000e-01 3.8150697243e+01 3.0458213818e+00 2.1493984460e+01
646 1 1 7.6394400000e-01 6.3718329784e+01 6.3367553373e+01 3.5731208360e+01
647 1 1 7.6394400000e-01 2.1291530721e+01 5.9427374868e+01 3.4703590340e+01
648 1 1 7.6394400000e-01 5.7895850483e+01 3.9614976048e+01 4.8970905443e+01
649 1 1 7.6394400000e-01 5.9290381560e+01 4.8847184627e+01 1.9778855187e+01
650 1 1 7.6394400000e-01 3.5000614711e+01 4.8207615865e+01 2.4103603873e+00
651 1 1 7.6394400000e-01 2.2403909599e+01 4.6679806819e+01 4.5663264661e+01
652 1 1 7.6394400000e-01 1.1566935471e+01 3.1578995862e+01 6.3455966016e+01
653 1 1 7.6394400000e-01 4.9504202263e+01 3.3675761114e+01 5.8475761266e+01
654 1 1 7.6394400000e-01 6.2012344353e+01 4.8707454872e+01 5.3808927565e+01
655 1 1 7.6394400000e-01 4.2364313575e+01 4.1968587897e+01 4.5220014393e+01
656 1 1 7.6394400000e-01 6.0397240462e+01 3.8923308441e+01 4.8095688649e+01
657 1 1 7.6394400000e-01 5.1133739144e+01 1.5950394609e+01 1.1490458628e+01
658 1 1 7.6394400000e-01 4.1987984271e+01 1.0482968908e+01 3.2460471348e+01
659 1 1 7.6394400000e-01 6.0753174316e+01 2.9883113933e+01 4.0476971644e+01
660 1 1 7.6394400000e-01 3.1017143644e+01 2.3728784637e+01 1.1179902133e+00
661 1 1 7.6394400000e-01 2.6441854160e+01 3.7874276651e+01 5.2376479458e+01
662 1 1 7.6394400000e-01 6.2667734888e+01 1.4611867039e+01 6.3040438464e+01
663 1 1 7.6394400000e-01 2.0694981954e+01 4.5593499805e+01 6.1138107027e+01
664 1 1 7.6394400000e-01 2.1287227627e+01 4.2071108694e+01 6.1898545876e+01
665 1 1 7.6394400000e-01 2.7252403767e+01 1.1149381191e+01 3.8073025504e+01
666 1 1 7.6394400000e-01 8.6846088205e+00 3.0610812140e+01 5.1145369262e+01
667 1 1 7.6394400000e-01 2.9005866834e+01 3.2493765295e+01 6.3495621935e+01
668 1 1 7.6394400000e-01 6.1068233809e+00 1.3631793352e+00 4.2220069809e+01
669 1 1 7.6394400000e-01 2.7225783444e+01 5.9419146361e+01 2.5179070539e+00
670 1 1 7.6394400000e-01 3.5854261122e+01 3.2391808871e+01 7.5069377503e+00
671 1 1 7.6394400000e-01 6.2893229803e+00 3.6622466936e+01 1.2292378059e+01
672 1 1 7.6394400000e-01 3.7730140142e+01 4.5041067190e-01 3.9215129696e+00
673 1 1 7.6394400000e-01 1.5031600419e-01 1.7667358233e+01 1.1325848926e+01
674 1 1 7.6394400000e-01 2.6712164354e+01 3.9613971126e+01 4.2251087367e+00
675 1 1 7.6394400000e-01 5.4197715358e+01 1.3558139622e+01 4.5037715626e+01
676 1 1 7.6394400000e-01 9.4051395113e+00 1.0358800483e+01 3.2502973545e+01
677 1 1 7.6394400000e-01 1.3091396915e+01 5.8903846867e+01 2.5941026439e+01
678 1 1 7.6394400000e-01 7.7813750135e-01 4.2739719477e+01 2.6189599498e+01
679 1 1 7.6394400000e-01 5.0365069881e+01 9.9358269118e+00 3.9473920635e+01
680 1 1 7.6394400000e-01 4.4217712045e+01 5.0568093802e+01 3.6595269762e+01
681 1 1 7.6394400000e-01 2.5591167539e+01 1.3823926349e+00 5.7348584021e+01
682 1 1 7.6394400000e-01 5.1060623120e+01 4.6974015031e+01 4.5537546169e+01
683 1 1 7.6394400000e-01 7.7412560897e+00 3.8640172800e+01 5.4166625361e+01
684 1 1 7.6394400000e-01 2.4313789311e+01 1.3518623075e+01 4.5622753780e+01
685 1 1 7.6394400000e-01 7.7208171521e+00 7.0702188881e+00 1.7723177020e+01
686 1 1 7.6394400000e-01 1.6024233341e+01 1.1828310030e+01 6.1511344802e+01
687 1 1 7.6394400000e-01 1.7803338877e+01 6.1389998128e+01 3.7303810846e+01
688 1 1 7.6394400000e-01 2.0633357527e+01 5.6647941066e+01 5.3069526167e+01
689 1 1 7.6394400000e-01 7.1214407374e+00 6.2664948579e+01 6.3012211670e+01
690 1 1 7.6394400000e-01 2.7488564728e+01 2.3361662796e+00 3.8813330295e+01
691 1 1 7.6394400000e-01 2.4922205947e+01 4.4654167938e+01 4.2372460317e+01
692 1 1 7.6394400000e-01 2.9372541233e+01 3.7229925166e+01 2.2352031639e+01
693 1 1 7.6394400000e-01 4.7376534604e-01 1.0300434595e+01 6.3420903511e+01
694 1 1 7.6394400000e-01 5.5689817743e+00 1.7985106792e+01 5.3308601819e+01
695 1 1 7.6394400000e-01 5.6970453241e+01 4.2735873699e+01 6.0598305745e+01
696 1 1 7.6394400000e-01 3.6459469131e+01 3.1920029038e+01 1.4174734856e+01
697 1 1 7.6394400000e-01 3.1929439203e+01 5.7307242515e+01 3.7984015617e+01
698 1 1 7.6394400000e-01 2.8349125929e+01 3.9453971353e+00 1.8569350210e+01
699 1 1 7.6394400000e-01 2.0515824060e+01 2.5417652140e+01 6.3527710426e+01
700 1 1 7.6394400000e-01 3.5239536335e+01 1.0539837853e+01 4.0709130969e+01
701 1 1 7.6394400000e-01 5.6880875357e+01 2.7319534793e+01 3.6710998499e+01
702 1 1 7.6394400000e-01 8.0268714170e+00 1.3480736450e+00 2.4872419115e+01
703 1 1 7.6394400000e-01 1.6666778659e-02 7.6183467381e+00 2.2088102887e+01
704 1 1 7.6394400000e-01 2.0299668131e+01 2.4047275871e+01 5.5963884458e+01
705 1 1 7.6394400000e-01 1.7257323731e+01 5.6658220607e+01 1.9850603556e+01
706 1 1 7.6394400000e-01 7.7518206271e+00 5.0279852164e+01 4.2564899902e+01
707 1 1 7.6394400000e-01 2.9297655844e+01 4.3357427512e+01 3.7799788356e+01
708 1 1 7.6394400000e-01 4.7071344740e+00 4.5076138997e+01 4.2174456778e+01
709 1 1 7.6394400000e-01 5.2731189049e+00 6.1970963147e+01 4.4532703370e+01
710 1 1 7.6394400000e-01 2.8209125675e+01 5.4680312595e+01 5.0604261491e+01
711 1 1 7.6394400000e-01 2.5292031221e+01 2.7901130041e+01 4.9483986716e+01
712 1 1 7.6394400000e-01 2.7730619177e+01 1.8102298823e+00 1.0585220692e+01
713 1 1 7.6394400000e-01 1.8237833637e+01 3.1459624110e+01 5.8702136585e+01
714 1 1 7.6394400000e-01 1.9437322009e+00 1.0474515841e+01 6.3358642761e+01
715 1 1 7.6394400000e-01 4.4350972155e+01 2.0030242803e+01 4.0050520460e+01
716 1 1 7.6394400000e-01 6.0570483418e+01 4.4847562117e+01 5.0943397326e+01
717 1 1 7.6394400000e-01 4.3593493805e+01 4.0247092246e+01 1.2561099905e+01
718 1 1 7.6394400000e-01 4.5302737046e+01 3.6681273340e+01 2.3962036922e+01
719 1 1 7.6394400000e-01 2.3286470434e+01 1.4993136481e+01 4.8324262716e+00
720 1 1 7.6394400000e-01 4.3356571932e+01 6.2153707872e+01 4.9732857204e+01
721 1 1 7.6394400000e-01 4.0044120097e+01 5.0217006056e+01 1.1247032612e+01
722 1 1 7.6394400000e-01 1.2757974762e+01 2.9001843733e+01 5.1503838781e+01
723 1 1 7.6394400000e-01 4.2906628886e+01 4.4377926597e+01 1.7894076898e+01
724 1 1 7.6394400000e-01 5.7375200198e+01 5.8513249777e+01 6.1401925912e+01
725 1 1 7.6394400000e-01 1.6698430861e+01 3.4530146766e+01 6.0153350622e+00
726 1 1 7.6394400000e-01 2.3158635757e+01 6.2732968195e+01 2.1924147734e+01
727 1 1 7.6394400000e-01 3.5702156811e+01 6.0324686620e+01 1.2427304555e+01
728 1 1 7.6394400000e-01 1.6337655851e+00 4.0407138807e+01 4.9640859619e+01
729 1 1 7.6394400000e-01 9.6860804599e+00 9.4226077007e+00 2.2234596529e+01
730 1 1 7.6394400000e-01 3.0494168636e+01 6.0680083952e+01 6.2322965118e+01
731 1 1 7.6394400000e-01 1.5308558125e+01 4.7990522814e+01 6.3874468194e+01
732 1 1 7.6394400000e-01 5.5938978402e+01 2.4325937863e+01 4.0937439429e+01
733 1 1 7.6394400000e-01 6.2942459056e+01 1.6701273487e+01 2.5250250119e+01
734 1 1 7.6394400000e-01 1.2765642632e+01 1.8121022854e+01 4.1426051422e+01
735 1 1 7.6394400000e-01 2.1195307037e+01 3.5590713561e+01 2.1414472990e+01
736 1 1 7.6394400000e-01 3.4406727333e+00 5.6182146789e+01 5.0001377590e+00
737 1 1 7.6394400000e-01 2.2216575955e+01 5.3905642368e+01 3.9836621094e+01
738 1 1 7.6394400000e-01 5.1443610465e+01 5.5822371387e+01 6.3958648555e+01
739 1 1 7.6394400000e-01 5.6474598926e+01 5.1319819057e+01 2.9104668111e+01
740 1 1 7.6394400000e-01 2.8761868279e+01 4.9272935742e+01 1.0083985560e+01
741 1 1 7.6394400000e-01 3.8620527676e+01 4.5643928583e+01 1.3693283595e+01
742 1 1 7.6394400000e-01 2.5931876013e-01 2.4777703986e+01 6.3761908454e+01
743 1 1 7.6394400000e-01 5.4788700098e+01 1.2343436718e+01 4.0811601870e+01
744 1 1 7.6394400000e-01 1.1294107845e+01 5.4390003765e+00 4.9681021421e+01
745 1 1 7.6394400000e-01 2.7116268511e+01 3.0782513470e+01 1.5827097711e+01
746 1 1 7.6394400000e-01 2.0966034672e+01 7.3364203376e+00 6.2341597793e+01
747 1 1 7.6394400000e-01 3.0630055429e+01 4.3492646569e+01 2.0117455053e+01
748 1 1 7.6394400000e-01 2.7545586010e+01 1.4353747001e+01 3.7678221704e+01
749 1 1 7.6394400000e-01 1.5204685294e+01 5.9108992324e+01 1.6495368850e+01
750 1 1 7.6394400000e-01 1.2228909368e+01 3.1824505759e+00 4.4117558796e+01
751 1 1 7.6394400000e-01 5.7955193345e+01 3.7842543922e+01 2.8005533227e+01
752 1 1 7.6394400000e-01 3.1184778028e+01 3.8456514686e+01 5.4542726658e+01
753 1 1 7.6394400000e-01 4.4793044696e+01 2.3849925811e+01 8.0891981470e+00
754 1 1 7.6394400000e-01 6.2125693600e+01 2.0694602380e+01 3.6061011936e+01
755 1 1 7.6394400000e-01 2.9747060685e-01 1.6399361777e+01 6.3321397223e+01
756 1 1 7.6394400000e-01 2.3175500610e+01 4.5246383383e+01 2.8084620878e+01
757 1 1 7.6394400000e-01 2.6275867038e+01 5.7260514725e+01 1.4890671052e+00
758 1 1 7.6394400000e-01 3.7911623241e+01 3.5415914009e+01 6.3068217436e+01
759 1 1 7.6394400000e-01 7.9082992589e+00 4.0313780254e+01 1.9242313061e+01
760 1 1 7.6394400000e-01 3.9710252973e+01 8.8442843913e+00 8.9443073609e+00
761 1 1 7.6394400000e-01 2.9900849022e+01 2.9940392287e+00 3.3173452253e+01
762 1 1 7.6394400000e-01 4.5709809675e+01 8.8803089120e+00 8.4870473968e+00
763 1 1 7.6394400000e-01 2.5484626798e+01 2.0507241330e+01 3.6966254993e+01
764 1 1 7.6394400000e-01 4.8122882560e+00 2.4560451093e+01 5.4616403712e+01
765 1 1 7.6394400000e-01 5.5749600692e+01 4.5551578753e+00 5.7666995660e+01
766 1 1 7.6394400000e-01 4.5678036116e+01 1.9386122910e+01 4.9404136435e+01
767 1 1 7.6394400000e-01 5.4617000889e-01 5.9571179569e+00 5.7704679635e+01
768 1 1 7.6394400000e-01 3.2511248195e+00 3.7999127793e+01 9.6841173524e-01
769 1 1 7.6394400000e-01 6.3819922297e+01 5.1218129861e+01 3.8980032948e+01
770 1 1 7.6394400000e-01 2.5047383971e+01 1.4880177242e+00 6.9910245747e-01
771 1 1 7.6394400000e-01 4.7100443628e+01 4.6912918690e+01 3.5728735007e+01
772 1 1 7.6394400000e-01 2.3001046778e+01 8.5720356752e+00 8.0199978701e+00
773 1 1 7.6394400000e-01 6.1097476553e+01 2.7653250369e+01 1.3367214520e+01
774 1 1 7.6394400000e-01 4.8014655624e+01 3.7610602899e+01 2.9358154724e+01
775 1 1 7.6394400000e-01 4.6433388791e+01 8.3896787745e+00 5.3757387324e+01
776 1 1 7.6394400000e-01 2.6909879480e+01 1.3883115516e+01 5.8063942562e+01
777 1 1 7.6394400000e-01 1.7071750515e+01 3.6765079377e+01 1.3948970429e+01
778 1 1 7.6394400000e-01 4.4775898282e+01 3.2828278362e+01 2.5293019895e+00
779 1 1 7.6394400000e-01 5.4052443531e+01 5.1385704061e+01 2.5234379235e+01
780 1 1 7.6394400000e-01 1.6031494825e+01 5.0646944449e+00 3.7879570039e+01
781 1 1 7.6394400000e-01 5.7088133209e+01 3.4475297276e+01 3.0726037895e+01
782 1 1 7.6394400000e-01 2.2977839626e+01 2.9861614488e-01 5.9315738899e+01
783 1 1 7.6394400000e-01 1.3556154669e+01 5.3300611182e+01 2.1530974406e+01
784 1 1 7.6394400000e-01 1.7280001500e+00 3.8855885124e+01 3.7276678765e+01
785 1 1 7.6394400000e-01 2.3409912598e+00 5.4023445915e+01 4.7983380442e+01
786 1 1 7.6394400000e-01 2.1586072528e+01 1.9655280818e+01 4.5604244954e+01
787 1 1 7.6394400000e-01 3.7190407469e+01 2.6124260248e+01 5.5767461074e+01
788 1 1 7.6394400000e-01 8.8034529568e+00 4.0616126313e+01 4.1878981582e+01
789 1 1 7.6394400000e-01 4.9159915096e+01 5.4448914009e+01 4.3288764324e+01
790 1 1 7.6394400000e-01 7.2831464505e+00 3.5967512341e+01 7.3473503839e-01
791 1 1 7.6394400000e-01 8.8303145432e+00 2.6450792986e+01 3.7457701457e+01
792 1 1 7.6394400000e-01 6.2176671398e+01 1.2985355391e+01 3.3776631214e+01
793 1 1 7.6394400000e-01 6.2388750414e+01 7.9808257535e+00 2.6583829964e+01
794 1 1 7.6394400000e-01 4.4456711428e+01 5.1881041836e+01 2.4463277195e+01
795 1 1 7.6394400000e-01 2.9180535962e+01 5.5283322643e+01 1.8069101779e+01
796 1 1 7.6394400000e-01 2.1034752083e+01 5.3678636266e+01 4.6720355816e+01
797 1 1 7.6394400000e-01 2.0491629400e+01 5.8872809486e+01 1.6334992263e+01
798 1 1 7.6394400000e-01 6.2766108800e+01 5.8494419011e+01 1.1783996363e+01
799 1 1 7.6394400000e-01 2.5298172312e+01 1.3829052426e+01 1.1750827259e+01
800 1 1 7.6394400000e-01 2.2664823734e+01 5.1436966084e+01 8.7067247200e+00
801 1 1 7.6394400000e-01 1.7671371833e+01 2.2971693780e+01 1.7717895162e+01
802 1 1 7.6394400000e-01 2.1803796017e+01 5.7818028413e+01 5.3412333916e+00
803 1 1 7.6394400000e-01 3.5820676896e+01 1.4242211777e+01 3.2326726327e+01
804 1 1 7.6394400000e-01 5.2763731116e+01 3.0656748357e+01 4.0981066969e+01
805 1 1 7.6394400000e-01 6.3855578321e+01 5.0279165399e+01 2.5067399923e+01
806 1 1 7.6394400000e-01 1.8223850889e+01 2.1023067921e-01 7.1580133321e+00
807 1 1 7.6394400000e-01 5.9101686877e+01 5.6926902633e+01 5.5498990988e+01
808 1 1 7.6394400000e-01 5.3752493318e+00 6.2077159254e+01 3.0016585100e+01
809 1 1 7.6394400000e-01 5.8091134405e+01 5.0302407805e+01 2.7460019570e+01
810 1 1 7.6394400000e-01 6.1445702356e+01 4.4529608322e+01 1.5611771643e+01
811 1 1 7.6394400000e-01 6.0331824263e+01 3.5166244471e+01 3.1402174451e+01
812 1 1 7.6394400000e-01 5.2363044170e+01 4.1198902134e+01 1.2128433515e+01
813 1 1 7.6394400000e-01 3.1331320897e+01 2.9085213956e+01 2.3115174607e+01
814 1 1 7.6394400000e-01 1.4944356409e+01 3.1656756772e+01 4.3859720148e+01
815 1 1 7.6394400000e-01 1.7551830940e+01 5.5413604397e+00 5.9140413842e+01
816 1 1 7.6394400000e-01 5.9479726959e+01 1.3927164819e+01 3.1807655338e+00
817 1 1 7.6394400000e-01 5.2465942394e+01 5.2326273965e+01 2.0115073771e+01
818 1 1 7.6394400000e-01 1.1768490377e+00 9.4476309177e+00 3.7812332940e+01
819 1 1 7.6394400000e-01 3.7241431172e+01 5.8157684680e+01 5.5748108135e+01
820 1 1 7.6394400000e-01 3.9183201142e+01 5.8348894086e+01 2.5036821906e+00
821 1 1 7.6394400000e-01 3.1900689327e+01 4.8773766554e+01 1.9875291491e+01
822 1 1 7.6394400000e-01 4.5098415126e+01 4.8691712504e+00 3.4874689161e+00
823 1 1 7.6394400000e-01 2.9786885270e+01 1.8632905676e+01 6.3355275963e+01
824 1 1 7.6394400000e-01 2.6467773009e+01 1.5043580608e+01 3.5737700355e+01
825 1 1 7.6394400000e-01 1.1942948758e+01 2.4197043301e+01 1.5388681687e+01
826 1 1 7.6394400000e-01 1.7274575611e+01 8.5804193586e+00 1.2977526621e+01
827 1 1 7.6394400000e-01 5.1738744209e+01 2.7452396135e+01 3.3333330352e+01
828 1 1 7.6394400000e-01 4.6143976516e+01 4.4669547890e+01 1.5293542545e+01
829 1 1 7.6394400000e-01 5.1859254286e+01 4.4267191725e+01 4.8847175840e+01
830 1 1 7.6394400000e-01 4.7925533581e+01 4.5907931995e+01 4.6837983397e+01
831 1 1 7.6394400000e-01 1.0565203692e+01 1.3735315828e+01 7.4527435781e-01
832 1 1 7.6394400000e-01 4.8609071185e-01 3.5914122037e+01 3.4077067006e+01
833 1 1 7.6394400000e-01 3.9316269184e+01 6.3679717498e+00 4.6869057108e+01
834 1 1 7.6394400000e-01 1.8058430730e+01 4.9788730087e+01 2.3149031136e+01
835 1 1 7.6394400000e-01 5.8669367412e+01 6.2287773317e+01 1.9370689600e+01
836 1 1 7.6394400000e-01 5.8114019514e+01 3.1174950554e+01 1.6529675340e+01
837 1 1 7.6394400000e-01 1.0181450293e+01 3.8028310655e+01 2.8008577775e+01
838 1 1 7.6394400000e-01 6.1849768465e+01 1.7088898143e+01 4.0938015503e+01
839 1 1 7.6394400000e-01 1.8164896219e+00 3.1085884412e+01 1.1272783523e+00
840 1 1 7.6394400000e-01 3.7337791776e+01 3.2558661079e+01 2.4764675203e+01
841 1 1 7.6394400000e-01 1.2484560199e+01 5.8512756032e+01 2.0046321239e+01
842 1 1 7.6394400000e-01 4.7787215882e+01 5.4083819461e+01 9.4924379518e+00
843 1 1 7.6394400000e-01 2.6026770986e+01 4.3021698857e+01 2.8543083955e+01
844 1 1 7.6394400000e-01 4.7761549627e+01 4.6594293961e+01 5.3633583117e+01
845 1 1 7.6394400000e-01 1.1611752944e+01 6.2017277161e+01 4.8597489583e+01
846 1 1 7.6394400000e-01 6.1203553920e+00 5.7455019805e+01 6.8956526853e+00
847 1 1 7.6394400000e-01 6.3951596214e+01 1.4171890249e+01 4.9069792674e+01
848 1 1 7.6394400000e-01 4.7773177863e+01 1.4691417845e+01 3.1907077382e+01
849 1 1 7.6394400000e-01 3.8229818630e+01 3.0912874617e+01 4.3297103756e+01
850 1 1 7.6394400000e-01 3.7209412523e+01 4.5720404367e+01 1.7149981118e+01
851 1 1 7.6394400000e-01 3.0922632329e+01 1.1955869818e+01 5.2511040858e+01
852 1 1 7.6394400000e-01 2.9877893167e+01 4.0843644352e+01 5.5895107024e+01
853 1 1 7.6394400000e-01 5.8545627587e+01 5.5685783195e+01 5.0746999826e+01
854 1 1 7.6394400000e-01 7.5063735170e+00 4.3034239187e+01 1.5759948319e+01
855 1 1 7.6394400000e-01 1.8024897254e+00 6.2688155074e+01 7.7893135377e+00
856 1 1 7.6394400000e-01 2.9487281690e+01 2.5201896949e+01 6.0346973288e+01
857 1 1 7.6394400000e-01 2.6814191501e+01 5.8026980256e+01 4.8921650950e+01
858 1 1 7.6394400000e-01 2.4088963473e+01 2.5155158623e+01 5.6337521030e+01
859 1 1 7.6394400000e-01 5.4273529539e+01 2.8106233861e+00 2.8691760061e+01
860 1 1 7.6394400000e-01 8.6460338417e+00 1.4696554876e+01 4.4695573570e+01
861 1 1 7.6394400000e-01 5.9883892256e+01 2.3108962917e+01 1.2938173051e+01
862 1 1 7.6394400000e-01 6.7039248869e-01 4.9265060979e+01 3.3266947941e+01
863 1 1 7.6394400000e-01 2.1013810052e+01 4.1296816355e+01 2.8729527370e+00
864 1 1 7.6394400000e-01 6.0127343102e+00 1.5515571978e+01 3.3009329094e+01
865 1 1 7.6394400000e-01 5.5947313747e+01 2.1221655663e+00 1.6488881904e+01
866 1 1 7.6394400000e-01 3.2690435629e+01 1.6427929807e+01 5.0079800644e+01
867 1 1 7.6394400000e-01 6.0864853375e+01 2.6986688596e+01 4.6762370590e+01
868 1 1 7.6394400000e-01 4.1044791002e+00 3.2849555313e+00 4.9139657271e+01
869 1 1 7.6394400000e-01 4.6845383021e-01 6.6483510626e+00 5.1640776432e+01
870 1 1 7.6394400000e-01 6.0945372814e+01 1.6595317434e+01 2.1526633747e+01
871 1 1 7.6394400000e-01 4.7230876256e+01 5.4807315406e+01 1.7865641982e+01
872 1 1 7.6394400000e-01 2.3915462453e+01 4.0567145198e+01 1.1156963521e+01
873 1 1 7.6394400000e-01 5.1775664546e+01 1.2709944313e+01 2.6288102191e+00
874 1 1 7.6394400000e-01 5.5126204121e+01 1.9844848766e+01 4.6262941363e+00
875 1 1 7.6394400000e-01 1.6558097343e+01 9.2644324404e+00 5.3596309923e+01
876 1 1 7.6394400000e-01 7.8597627756e+00 1.0268260810e+01 1.3687871114e+01
877 1 1 7.6394400000e-01 2.4904130902e+01 5.1042271689e+01 1.6072494228e+01
878 1 1 7.6394400000e-01 1.2577060650e+01 5.1626241781e+01 3.6784580110e+01
879 1 1 7.6394400000e-01 4.8331652914e+01 6.1127042276e+01 4.0480119669e+01
880 1 1 7.6394400000e-01 1.7088788156e+01 4.5221504475e+01 4.8690834520e+01
881 1 1 7.6394400000e-01 1.3759287327e+01 4.4398132594e+01 1.0785130719e+01
882 1 1 7.6394400000e-01 2.0521367797e+01 1.3679307133e+01 6.1664822083e+01
883 1 1 7.6394400000e-01 1.1437074268e+01 2.7392037767e+01 2.8953791657e+01
884 1 1 7.6394400000e-01 5.8858253349e+01 5.2121412611e+01 4.2230253339e+01
885 1 1 7.6394400000e-01 3.1510898782e+01 8.3894935039e+00 2.9310178647e+00
886 1 1 7.6394400000e-01 2.2497366480e+01 3.1467686205e+01 3.7886674190e+01
887 1 1 7.6394400000e-01 1.8684510223e+01 2.4333920154e+01 4.1700728185e+01
888 1 1 7.6394400000e-01 4.9371057202e+01 6.1212801337e+01 5.0224417071e+01
889 1 1 7.6394400000e-01 3.5208265645e+01 2.0010581179e+01 6.3239279505e+01
890 1 1 7.6394400000e-01 2.3663891492e+01 1.7102081689e+01 4.9336498947e+01
891 1 1 7.6394400000e-01 3.8973997833e+01 3.2009762223e+01 4.7374336249e+01
892 1 1 7.6394400000e-01 4.6223630817e+01 5.4169695686e+00 3.3979173772e+00
893 1 1 7.6394400000e-01 2.9046518534e+01 2.7840330053e+01 2.7284952677e+01
894 1 1 7.6394400000e-01 2.8397485024e+01 5.3335052660e+01 6.2716113558e+01
895 1 1 7.6394400000e-01 1.6837336304e+01 3.3502793308e+01 2.0780615790e+01
896 1 1 7.6394400000e-01 5.7317897873e+01 1.1297495032e+01 2.9680368053e+01
897 1 1 7.6394400000e-01 2.6644381333e+01 5.6046894125e+01 3.3507517635e+01
898 1 1 7.6394400000e-01 2.9960374433e+01 6.1606132271e+01 3.0120629959e+01
899 1 1 7.6394400000e-01 1.2429993838e+01 3.7250281151e+01 8.5947062646e+00
900 1 1 7.6394400000e-01 4.5312358975e+01 6.3456024883e+01 3.1634416301e+00
901 1 1 7.6394400000e-01 1.7405261210e+01 5.2249045506e+01 2.6709069321e+01
902 1 1 7.6394400000e-01 2.2901299517e+01 3.4088132268e+01 5.6660238231e+01
903 1 1 7.6394400000e-01 6.3366586541e+01 3.7823460521e+01 2.3440480407e+01
904 1 1 7.6394400000e-01 5.9820083528e+01 9.0712930842e+00 5.1661057252e+01
905 1 1 7.6394400000e-01 5.2591995389e+01 4.3160556181e+00 3.6713231866e+01
906 1 1 7.6394400000e-01 3.2537769007e+00 4.3172401061e+01 6.2441379849e+01
907 1 1 7.6394400000e-01 2.1737128655e+01 6.2942367313e+01 3.3000863417e+01
908 1 1 7.6394400000e-01 5.0941638685e+01 2.2452489742e+01 8.8207802677e+00
909 1 1 7.6394400000e-01 5.5014521512e+01 4.6754791363e+01 1.4753389988e+01
910 1 1 7.6394400000e-01 2.5351638895e+01 4.3640990923e+01 2.0541285137e+01
911 1 1 7.6394400000e-01 4.3005935922e+01 2.7451369988e+01 1.5316909357e+01
912 1 1 7.6394400000e-01 5.8637216539e+01 1.0199557974e+01 3.5328510874e+00
913 1 1 7.6394400000e-01 6.2985619117e+01 1.6050255246e+01 6.3893300073e+01
914 1 1 7.6394400000e-01 3.2773716539e+01 5.0015876969e+01 2.7052141142e+01
915 1 1 7.6394400000e-01 2.9822146314e+01 9.8681867311e+00 9.1486084523e+00
916 1 1 7.6394400000e-01 5.5703252151e+01 1.5261767818e+01 4.9226689186e-01
917 1 1 7.6394400000e-01 6.2007358991e+01 1.8461000734e+01 5.0649896718e+01
918 1 1 7.6394400000e-01 3.9161785847e+01 4.6700303861e+00 1.0212041487e+01
919 1 1 7.6394400000e-01 7.8602213168e+00 2.5869285962e+01 1.0578725556e+01
920 1 1 7.6394400000e-01 5.5106079179e+01 4.2948271526e+01 5.0844353414e+01
921 1 1 7.6394400000e-01 4.7586166992e+01 6.0417350788e+01 1.1765163824e+01
922 1 1 7.6394400000e-01 4.3938264438e+01 3.4347867390e+01 2.7742520028e+01
923 1 1 7.6394400000e-01 6.8176490443e+00 8.7334783516e+00 3.5371890428e+01
924 1 1 7.6394400000e-01 2.3818021970e+01 3.3136914878e+01 5.2971360803e+01
925 1 1 7.6394400000e-01 3.7211226349e+01 1.6527345067e+01 2.9918068706e+01
926 1 1 7.6394400000e-01 5.1216708445e+00 1.5381523846e+01 3.7501991363e+01
927 1 1 7.6394400000e-01 2.0423487815e+01 3.5410139981e+01 4.6225153824e+01
928 1 1 7.6394400000e-01 2.5864537500e+01 4.5986168338e+01 5.6499779717e+01
929 1 1 7.6394400000e-01 3.6635478786e+01 6.0907870217e+01 1.3025604025e+01
930 1 1 7.6394400000e-01 1.0614093367e+01 4.5924037771e+01 5.3528724158e+01
931 1 1 7.6394400000e-01 4.0109036878e+01 2.1900976689e+01 5.8952200506e+01
932 1 1 7.6394400000e-01 5.9490550783e+01 7.1120540241e+00 3.2266176576e+01
933 1 1 7.6394400000e-01 3.8050355236e+01 5.8308518295e+01 1.9806367698e+01
934 1 1 7.6394400000e-01 2.5978898516e+01 7.0297128234e+00 1.0022859848e+01
935 1 1 7.6394400000e-01 3.2486029066e+01 2.8801869056e+01 1.1231571389e+01
936 1 1 7.6394400000e-01 5.0798618006e+01 8.4719119900e-01 5.0568433083e+01
937 1 1 7.6394400000e-01 9.5677058486e+00 4.6818457474e+01 9.8820917625e+00
938 1 1 7.6394400000e-01 4.0488638358e+01 1.2550949243e+01 4.7759083073e+01
939 1 1 7.6394400000e-01 1.2968766415e+01 7.1789234627e-01 2.5859622301e+01
940 1 1 7.6394400000e-01 6.1067591325e+01 2.6341112803e+01 6.1696971693e+00
941 1 1 7.6394400000e-01 3.3514173622e+01 4.5228186855e+01 3.7609009162e+01
942 1 1 7.6394400000e-01 5.3634032277e+01 3.3343839311e+01 6.3222399676e+01
943 1 1 7.6394400000e-01 4.8686383635e+01 6.1165923497e+01 5.8148776084e+01
944 1 1 7.6394400000e-01 1.4812371040e+00 4.5246373741e+01 5.2566240913e+01
945 1 1 7.6394400000e-01 1.9095764376e+01 8.8110501127e+00 2.9030732801e+01
946 1 1 7.6394400000e-01 3.0519113824e+00 1.4870478761e+01 6.3323750484e+01
947 1 1 7.6394400000e-01 3.5084368707e+01 5.9331743284e+01 1.0977873897e+01
948 1 1 7.6394400000e-01 1.8449665283e+01 1.4363021170e+01 3.6200250081e+01
949 1 1 7.6394400000e-01 2.3836956006e+01 2.6667098175e+01 1.1978608692e+01
950 1 1 7.6394400000e-01 5.0821457026e+01 2.2596211726e+00 6.1186695844e+01
951 1 1 7.6394400000e-01 3.4779884729e+01 2.8674650095e+01 5.7176005511e+01
952 1 1 7.6394400000e-01 5.3778855775e+01 2.0237224805e+00 6.0359914600e-01
953 1 1 7.6394400000e-01 1.8831197626e+01 2.5962662387e+01 8.7873049155e+00
954 1 1 7.6394400000e-01 3.6029798144e+01 2.5065684417e+01 9.0474103937e+00
955 1 1 7.6394400000e-01 2.5239522651e+01 2.9589452161e+01 4.7418085070e+01
956 1 1 7.6394400000e-01 1.9442685685e+01 6.0936952669e+01 3.5904404904e+00
957 1 1 7.6394400000e-01 4.2386532624e+01 5.0184148864e+01 4.1676763377e+01
958 1 1 7.6394400000e-01 1.5464104548e+01 4.5450951412e+01 3.8401125493e+01
959 1 1 7.6394400000e-01 6.0127233132e+01 4.1676642285e+01 9.5832765106e+00
960 1 1 7.6394400000e-01 3.5345218250e+01 2.0060741845e+01 1.9276893872e+01
961 1 1 7.6394400000e-01 5.5397171947e+01 3.7669619713e+01 2.9851067684e+01
962 1 1 7.6394400000e-01 4.1432304517e+00 3.6212350481e+01 4.5751853216e+00
963 1 1 7.6394400000e-01 1.0699567684e+01 6.2666284778e+01 1.4545587278e+01
964 1 1 7.6394400000e-01 3.6508594299e+01 2.1269579132e+01 6.3984331316e+01
965 1 1 7.6394400000e-01 3.4290586309e+01 3.4832488586e+01 6.1859783658e+01
966 1 1 7.6394400000e-01 3.7473707480e+01 2.6844808836e+01 1.3249446100e+01
967 1 1 7.6394400000e-01 4.6241393696e+01 3.6248273971e+01 2.2979407714e+00
968 1 1 7.6394400000e-01 2.0159509617e+01 1.7008989141e+01 4.1768310974e+01
969 1 1 7.6394400000e-01 3.7855181502e+01 4.1700485121e+01 5.0889421098e+01
970 1 1 7.6394400000e-01 3.6224046274e+01 8.3516120625e+00 5.9191675517e+01
971 1 1 7.6394400000e-01 4.1723727666e+01 2.0984899730e+01 1.6381989801e+01
972 1 1 7.6394400000e-01 4.4693390931e+01 4.3420587797e+01 3.2671689440e+01
973 1 1 7.6394400000e-01 5.2986364579e+01 5.3130059247e+00 2.8179024368e+01
974 1 1 7.6394400000e-01 1.3965664038e+01 4.5624072861e+01 2.4572331326e+01
975 1 1 7.6394400000e-01 1.2936330598e-02 1.4998421423e+01 6.0494583989e+00
976 1 1 7.6394400000e-01 2.4213316243e+01 1.3612797975e+01 5.9583948881e+01
977 1 1 7.6394400000e-01 4.5692635726e+01 1.2535265270e+01 3.0954388265e+01
978 1 1 7.6394400000e-01 6.5485614649e+00 1.4674930294e+00 1.6975363866e+01
979 1 1 7.6394400000e-01 4.5658891211e+00 5.4624059320e+01 5.2821137502e+01
980 1 1 7.6394400000e-01 2.2816671532e+00 5.8102133213e+01 5.8026499044e+01
981 1 1 7.6394400000e-01 1.4586378599e+01 4.0795780350e+00 3.6468592883e+01
982 1 1 7.6394400000e-01 5.6840999304e+01 2.6013529575e+01 1.2502335274e+00
983 1 1 7.6394400000e-01 5.9644911629e+00 3.4266241943e+01 1.5328206067e+01
984 1 1 7.6394400000e-01 4.3448429625e+01 4.6761225998e+01 1.0817119790e+01
985 1 1 7.6394400000e-01 3.4344310901e+01 3.0191645557e+01 3.6949574324e+01
986 1 1 7.6394400000e-01 1.7231902376e+01 4.2669860997e+01 1.7876025638e+00
987 1 1 7.6394400000e-01 4.5647038020e+01 5.3859351633e+00 2.8579429110e+01
988 1 1 7.6394400000e-01 3.2584923241e+01 4.6375541146e+01 4.9760649946e+01
989 1 1 7.6394400000e-01 3.4774775128e+01 2.0297770892e+01 2.5920065959e+01
990 1 1 7.6394400000e-01 3.0275550267e+01 6.3128624430e+01 2.5172373755e+01
991 1 1 7.6394400000e-01 2.3451564179e+00 5.6124393498e+01 2.4934650470e+01
992 1 1 7.6394400000e-01 2.0912515666e+01 8.6801788725e+00 6.3885586902e+01
993 1 1 7.6394400000e-01 4.1881675011e+01 1.3194800564e+01 4.6356090184e+01
994 1 1 7.6394400000e-01 3.9172553779e+01 2.5731451708e+01 3.0746258312e+01
995 1 1 7.6394400000e-01 5.7420683484e+01 6.1035870087e+01 1.6799616930e+01
996 1 1 7.6394400000e-01 4.8798308658e+01 3.4223389714e+01 1.8958315688e+01
997 1 1 7.6394400000e-01 3.4960019547e+01 5.2543326128e+01 2.9922038382e+01
998 1 1 7.6394400000e-01 5.6791769737e+01 5.8325603748e+01 5.0496920188e+01
999 1 1 7.6394400000e-01 2.2084283059e+01 2.0949631272e+01 5.8872406618e+01
1000 1 1 7.6394400000e-01 3.8196746433e+01 1.6745870018e+01 4.8641508167e+01
1001 1 1 7.6394400000e-01 1.0172231254e+01 4.7475837651e+01 6.1882375600e+01
1002 1 1 7.6394400000e-01 6.3695443783e+01 2.8832426579e+01 2.8609856445e+01
1003 1 1 7.6394400000e-01 2.0810057960e+01 2.7743753780e+01 5.3763822483e+01
1004 1 1 7.6394400000e-01 5.7593231097e+00 3.9721752741e+01 2.6486514886e+01
1005 1 1 7.6394400000e-01 1.9201524081e+01 3.5027976258e+00 4.2786874711e+01
1006 1 1 7.6394400000e-01 2.4828485050e+01 1.4758220799e+01 2.3022086939e+00
1007 1 1 7.6394400000e-01 3.1039272639e+01 3.2188707175e+01 5.0584043007e+01
1008 1 1 7.6394400000e-01 3.6539474192e+01 4.1910530135e+01 3.4924854878e+00
1009 1 1 7.6394400000e-01 1.4584330363e+01 2.4945157301e+01 6.2814240557e+01
1010 1 1 7.6394400000e-01 6.7468621507e+00 3.6325705357e+01 8.7173688976e+00
1011 1 1 7.6394400000e-01 6.2231344634e+01 3.6716247617e+01 1.1979493573e+01
1012 1 1 7.6394400000e-01 3.3575206606e+01 2.2863346513e+00 5.6146253661e+01
1013 1 1 7.6394400000e-01 3.9702832744e+01 5.5619645896e+01 8.8803395441e+00
1014 1 1 7.6394400000e-01 3.8920070386e+00 5.5842469467e+01 5.8076904349e+01
1015 1 1 7.6394400000e-01 5.1337571523e+01 2.7513354151e+01 4.8429039796e+01
1016 1 1 7.6394400000e-01 5.9746522800e+01 4.4745642439e+01 5.7919810669e+01
1017 1 1 7.6394400000e-01 1.1848483578e+01 1.4980016821e+01 4.7359465299e+01
1018 1 1 7.6394400000e-01 3.9702723677e+01 4.9469232393e+01 3.9671461418e+01
1019 1 1 7.6394400000e-01 5.8455200397e+01 4.0084937327e+01 2.4035556280e+01
1020 1 1 7.6394400000e-01 3.5398014859e+01 6.2941411979e+01 2.6120824323e+01
1021 1 1 7.6394400000e-01 3.8389942056e+01 1.3315955478e+01 4.4518704831e+01
1022 1 1 7.6394400000e-01 2.7189764885e+01 2.8112838353e+01 3.5981114725e+00
1023 1 1 7.6394400000e-01 4.0206064384e+01 2.7280452307e+01 2.9913179280e+01
1024 1 1 7.6394400000e-01 2.4004713171e+00 4.5080796264e+01 2.9285348247e+01
1025 1 1 7.6394400000e-01 6.2493143529e+01 5.6539996523e+01 5.9330538505e+01
1026 1 1 7.6394400000e-01 1.1304476384e+01 2.8441199622e+01 1.0154055390e+01
1027 1 1 7.6394400000e-01 1.7758407491e+01 4.3105437036e+01 4.8526371215e+01
1028 1 1 7.6394400000e-01 5.8116086538e+01 4.1836579814e+01 2.0513244590e+01
1029 1 1 7.6394400000e-01 3.1182957415e+01 3.4270923177e+01 3.4551801301e+01
1030 1 1 7.6394400000e-01 5.9208866393e+01 2.2975916468e+01 4.6657340339e+01
1031 1 1 7.6394400000e-01 9.1840330920e+00 6.0639282195e+01 1.6558781529e+01
1032 1 1 7.6394400000e-01 3.4030656430e+01 6.3533189832e+00 3.5287845041e+01
1033 1 1 7.6394400000e-01 1.3327716555e+01 2.4282732513e+01 9.4462267902e+00
1034 1 1 7.6394400000e-01 5.3664489169e+01 3.2156515141e+01 4.8304603007e+01
1035 1 1 7.6394400000e-01 1.7284401233e+01 3.9606853545e+01 1.0455626411e+01
1036 1 1 7.6394400000e-01 4.9168624978e+01 5.2737596313e+01 5.8348895087e+01
1037 1 1 7.6394400000e-01 2.7288526652e+01 1.5723351453e+01 5.3102499758e+01
1038 1 1 7.6394400000e-01 1.0343289779e+01 4.7556576716e+01 1.7032529637e+01
1039 1 1 7.6394400000e-01 3.9631111704e+01 3.5675602522e+01 5.9790459116e+01
1040 1 1 7.6394400000e-01 1.2946933937e+01 1.6724843976e+01 3.8944236772e+01
1041 1 1 7.6394400000e-01 1.8895800460e+01 1.7822831066e+01 3.7277265010e+00
1042 1 1 7.6394400000e-01 1.1833367006e+01 1.8875162145e+01 6.1353583760e+01
1043 1 1 7.6394400000e-01 1.6014931910e+01 8.8710206314e+00 6.3835163148e-01
1044 1 1 7.6394400000e-01 2.0992181195e+01 1.4152719535e+01 2.8442722306e+01
1045 1 1 7.6394400000e-01 3.0453186416e+01 4.8495123767e+01 4.6514619364e+01
1046 1 1 7.6394400000e-01 2.4676516270e+01 2.0425981635e+00 2.2990513613e+01
1047 1 1 7.6394400000e-01 4.4021130103e+01 1.1515288443e+01 1.1653319895e+01
1048 1 1 7.6394400000e-01 6.1763802449e+01 5.2288594400e+01 4.2640256333e+01
1049 1 1 7.6394400000e-01 1.3816525107e+01 1.8743346774e+01 1.7746448715e+01
1050 1 1 7.6394400000e-01 3.4182361996e+01 6.1464994289e+01 5.4289651234e+01
1051 1 1 7.6394400000e-01 4.0281993933e+00 6.0272108667e+01 1.5955202638e+01
1052 1 1 7.6394400000e-01 3.0595661065e+01 2.5685212671e+01 4.6888567625e+01
1053 1 1 7.6394400000e-01 3.2912415313e+00 4.2868883664e+01 5.7784832587e+01
1054 1 1 7.6394400000e-01 5.1415162581e+01 1.8695082039e+01 3.2981553123e+01
1055 1 1 7.6394400000e-01 4.0855196014e+01 5.2791886977e+01 1.6718003174e+01
1056 1 1 7.6394400000e-01 2.7438701975e+01 1.6750815528e+01 1.6519508356e+01
1057 1 1 7.6394400000e-01 4.2134885692e+01 5.1056785817e+01 3.4210701348e+01
1058 1 1 7.6394400000e-01 4.8594381599e+01 3.2808401006e+01 6.3768029777e+00
1059 1 1 7.6394400000e-01 4.3817128322e+00 6.0506507700e+01 2.9615974098e+01
1060 1 1 7.6394400000e-01 6.3457262210e+01 5.1887563132e+01 3.6419433961e+01
1061 1 1 7.6394400000e-01 5.9765259950e+01 5.4933352965e+01 4.9877224945e+01
1062 1 1 7.6394400000e-01 1.9615610828e+01 2.1852541812e+01 3.0652389541e+00
1063 1 1 7.6394400000e-01 6.9879055092e+00 3.6662204600e+00 3.8129221174e+01
1064 1 1 7.6394400000e-01 1.8829046840e+01 1.1750824753e+01 4.5493613824e+01
1065 1 1 7.6394400000e-01 3.5435916757e+01 4.7612414595e+01 3.5465604840e+01
1066 1 1 7.6394400000e-01 1.7406896923e+01 5.5214801021e+01 3.9856729245e+01
1067 1 1 7.6394400000e-01 1.8258064129e+01 2.8866152500e+01 2.3260267161e+01
1068 1 1 7.6394400000e-01 6.3370153566e+00 4.6506544254e+01 1.1029308405e+01
1069 1 1 7.6394400000e-01 3.2867927621e+01 2.3534594096e+01 5.8166381904e+01
1070 1 1 7.6394400000e-01 5.2909334699e+00 3.8774078561e+01 5.3399961057e+01
1071 1 1 7.6394400000e-01 2.5568255348e+01 1.5361128630e+01 6.3327445917e+01
1072 1 1 7.6394400000e-01 3.8558382517e+01 5.6389064910e+01 3.4950304388e+01
1073 1 1 7.6394400000e-01 4.5646332691e+01 4.4623867612e+00 1.2260638585e+01
1074 1 1 7.6394400000e-01 4.7774546392e+01 2.5849271008e+01 6.1850749782e+01
1075 1 1 7.6394400000e-01 4.2086878089e+01 3.5325719475e+00 1.2687042889e+01
1076 1 1 7.6394400000e-01 5.0970683633e+01 2.5698149292e+01 2.9212121840e+01
1077 1 1 7.6394400000e-01 3.5539347720e+01 1.5731637268e+01 4.8388620952e+01
1078 1 1 7.6394400000e-01 2.8818400359e+00 5.6291987575e+01 2.6918443758e+00
1079 1 1 7.6394400000e-01 2.7994147116e+01 2.7186063151e+01 5.0039470561e+01
1080 1 1 7.6394400000e-01 5.0153526290e+01 2.1882527995e+01 2.6720906521e+01
1081 1 1 7.6394400000e-01 3.6896832637e+00 2.5254820442e+01 6.1239457296e+01
1082 1 1 7.6394400000e-01 3.3093767779e+01 4.9401183274e+01 4.9706454082e+01
1083 1 1 7.6394400000e-01 5.0834346959e+01 3.4849285416e+01 2.0934876294e+01
1084 1 1 7.6394400000e-01 3.7044868326e+01 9.4265490560e+00 3.6958213982e+01
1085 1 1 7.6394400000e-01 3.8969633961e+01 1.1412822605e+01 2.2291922607e+01
1086 1 1 7.6394400000e-01 3.7064439457e+01 3.3807529449e+01 2.7347843329e+01
1087 1 1 7.6394400000e-01 6.1907037070e+01 1.6431989565e+01 4.6784839491e+01
1088 1 1 7.6394400000e-01 5.2793518659e+01 3.9903198161e+01 5.9427633888e+01
1089 1 1 7.6394400000e-01 3.7559505220e+01 3.8340600154e+01 6.0068834016e+01
1090 1 1 7.6394400000e-01 3.1875469625e+01 1.2235350785e+01 3.8746465512e+01
1091 1 1 7.6394400000e-01 4.0480655806e+01 1.8887213655e+01 1.5817764375e+01
1092 1 1 7.6394400000e-01 4.2870751180e+01 5.4562311495e+01 1.2070974583e+01
1093 1 1 7.6394400000e-01 5.7141887483e+01 9.5102560808e+00 1.4342554659e+01
1094 1 1 7.6394400000e-01 4.6905598470e+01 1.2700393565e+01 2.5916869816e+01
1095 1 1 7.6394400000e-01 3.3464961719e+01 1.8482838489e+01 3.9281609599e+01
1096 1 1 7.6394400000e-01 2.8472978978e+01 7.3508932971e+00 1.3128210962e+01
1097 1 1 7.6394400000e-01 1.0535945649e+01 2.0362283597e+01 3.4492805614e+01
1098 1 1 7.6394400000e-01 3.7350304966e+01 3.5227855934e+01 1.5329398753e+01
1099 1 1 7.6394400000e-01 5.5799036302e+01 6.2047317708e+01 3.6133670990e+01
1100 1 1 7.6394400000e-01 5.2253033481e+01 3.0898989159e+01 3.4703827159e+01
1101 1 1 7.6394400000e-01 6.3597829835e+01 5.7628792483e+01 3.8094537361e+01
1102 1 1 7.6394400000e-01 2.7021269047e+01 5.7533289728e+01 2.1245856142e+01
1103 1 1 7.6394400000e-01 4.9151773005e+01 1.4080080530e+01 5.7312581095e+01
1104 1 1 7.6394400000e-01 5.2139874127e+01 3.0055220080e+01 4.2376754191e+01
1105 1 1 7.6394400000e-01 1.5754590962e+01 5.3397209058e+01 2.3781391159e+01
1106 1 1 7.6394400000e-01 3.3827028504e+01 4.0670279121e+00 4.0568277348e+01
1107 1 1 7.6394400000e-01 4.3143762743e+01 3.1855821506e+01 6.2057882455e+01
1108 1 1 7.6394400000e-01 3.4044960099e+00 3.9461942567e+01 5.3260337872e+01
1109 1 1 7.6394400000e-01 4.5949603295e+00 4.0326841633e+01 1.7295829956e+01
1110 1 1 7.6394400000e-01 1.9110805473e+01 3.5494238448e+00 4.6120186617e+01
1111 1 1 7.6394400000e-01 5.8349222011e+01 4.5663754188e+01 6.4499781904e+00
1112 1 1 7.6394400000e-01 4.1601229051e+01 5.3378619212e+01 3.4198764723e+01
1113 1 1 7.6394400000e-01 4.0475313420e+00 5.4404378146e+01 2.9091204711e+01
1114 1 1 7.6394400000e-01 1.7416138794e+01 5.4768896028e+01 3.0643049607e+01
1115 1 1 7.6394400000e-01 1.7193373183e+01 2.1634442015e+01 7.1894282547e+00
1116 1 1 7.6394400000e-01 3.3507005015e+01 5.2703941954e+00 2.6201902678e+01
1117 1 1 7.6394400000e-01 2.5460247663e+01 4.5876379214e+00 2.5211918380e+01
1118 1 1 7.6394400000e-01 2.3337948708e+01 5.1296745276e+01 3.0017614953e+01
1119 1 1 7.6394400000e-01 1.6747549395e+01 6.1830581358e+01 1.7516490274e+01
1120 1 1 7.6394400000e-01 2.4828904482e+00 4.3669539926e+00 6.3983844107e+01
1121 1 1 7.6394400000e-01 9.5850696489e+00 2.7314683987e+01 5.6650856364e+01
1122 1 1 7.6394400000e-01 4.8271018849e+01 3.1189990895e+01 1.4537539839e+01
1123 1 1 7.6394400000e-01 6.1830337332e+01 2.9628770232e+01 5.8491925802e+01
1124 1 1 7.6394400000e-01 5.0563405406e+01 5.9442817547e+01 6.1657429708e+01
1125 1 1 7.6394400000e-01 1.4477871638e+01 5.1846329155e+01 4.2402288081e+01
1126 1 1 7.6394400000e-01 3.9887170242e+01 2.9604679490e+01 2.4836203276e+01
1127 1 1 7.6394400000e-01 5.8859163396e+01 5.7399199605e+01 2.3449885142e+01
1128 1 1 7.6394400000e-01 2.0128945609e+01 4.7196458667e-01 1.5287906519e+01
1129 1 1 7.6394400000e-01 5.9688412841e+01 5.0781365018e+01 2.8420963248e+01
1130 1 1 7.6394400000e-01 4.8101875294e+01 3.3060772327e+01 1.7003162764e+00
1131 1 1 7.6394400000e-01 5.2084532931e+01 2.0969411365e+01 1.5490825501e+01
1132 1 1 7.6394400000e-01 3.9900128295e+01 1.4513729436e+00 4.8580631462e+01
1133 1 1 7.6394400000e-01 5.6032919972e+01 4.1110123150e+01 7.7360469955e+00
1134 1 1 7.6394400000e-01 2.3258176375e+01 4.9708851669e+00 6.0567428323e+01
1135 1 1 7.6394400000e-01 1.6045120645e+01 5.4053419831e+01 1.6363155068e-01
1136 1 1 7.6394400000e-01 4.9788790873e+01 8.3505667835e+00 1.9075664529e+01
1137 1 1 7.6394400000e-01 5.5125471569e+01 1.4398479715e+01 2.3416155853e+01
1138 1 1 7.6394400000e-01 7.5615990336e+00 6.3871681809e+01 4.9718841571e+01
1139 1 1 7.6394400000e-01 3.2598375100e+01 1.4388199544e+01 5.2295659812e+01
1140 1 1 7.6394400000e-01 1.5299499643e+01 3.7148191074e+01 3.5429146461e+01
1141 1 1 7.6394400000e-01 2.5909306681e+01 1.6404182026e+01 3.3441429491e+00
1142 1 1 7.6394400000e-01 6.0143780683e+01 1.0651244306e+01 3.2158358071e+01
1143 1 1 7.6394400000e-01 4.7005279673e+00 5.5858081722e+01 1.3269013215e+01
1144 1 1 7.6394400000e-01 3.1059114975e+01 3.5329775401e+01 5.7017999968e+01
1145 1 1 7.6394400000e-01 1.7773171735e+01 4.3077563538e+01 2.3199836750e+01
1146 1 1 7.6394400000e-01 2.0443012349e+01 1.5030322777e+01 5.5242868877e+01
1147 1 1 7.6394400000e-01 2.0906172921e+01 3.6843116387e+01 4.7829397387e+01
1148 1 1 7.6394400000e-01 6.1780472440e-01 1.4465623439e+01 3.3846132694e+01
1149 1 1 7.6394400000e-01 6.1597842344e+00 4.8519959989e+01 6.2178918807e+01
1150 1 1 7.6394400000e-01 4.3692316352e+01 5.1078318723e+01 5.0127395910e+01
1151 1 1 7.6394400000e-01 2.1718262577e+00 3.3237715406e+01 5.0477873485e+01
1152 1 1 7.6394400000e-01 3.2091814216e+01 5.6624659076e+01 2.0940840752e+01
1153 1 1 7.6394400000e-01 3.5199483881e+01 6.1946775815e+01 6.4167586428e+00
1154 1 1 7.6394400000e-01 2.4905678304e-01 1.4280739176e+01 5.4295175820e+01
1155 1 1 7.6394400000e-01 4.3371390418e+01 2.2810518022e+01 5.0586539455e+01
1156 1 1 7.6394400000e-01 3.3031683704e+01 1.2807959913e+01 3.4804122239e+01
1157 1 1 7.6394400000e-01 1.5496715016e+00 2.6892979255e+01 5.9437468250e+01
1158 1 1 7.6394400000e-01 3.9822418749e+01 5.8552043682e+01 3.0972323101e+01
1159 1 1 7.6394400000e-01 6.0453436299e+01 2.1847768621e+01 6.1919973850e+00
1160 1 1 7.6394400000e-01 1.3995630228e+01 5.1559807582e+01 4.9498120882e+01
1161 1 1 7.6394400000e-01 2.2776309415e+01 6.0484411531e+01 1.3101934176e+01
1162 1 1 7.6394400000e-01 5.4020135926e+01 2.7655709217e+01 2.7770738934e+01
1163 1 1 7.6394400000e-01 1.2554015050e+01 4.4792466658e+01 4.3192950817e+01
1164 1 1 7.6394400000e-01 4.5782535201e+01 1.6518445320e+01 5.3850900917e+01
1165 1 1 7.6394400000e-01 4.3603141490e+00 2.1732521630e+01 3.0065075389e+01
1166 1 1 7.6394400000e-01 3.2362215484e+01 4.3217951480e+01 5.2921773554e+01
1167 1 1 7.6394400000e-01 3.8427941143e+01 2.1709764487e+01 1.0729598795e+01
1168 1 1 7.6394400000e-01 1.1597290690e+01 1.2474394272e+01 6.2530327023e+01
1169 1 1 7.6394400000e-01 2.8853652538e+01 5.6024522376e+01 2.2898333682e+01
1170 1 1 7.6394400000e-01 1.9492768257e+01 1.7850020755e+01 1.2981998691e+01
1171 1 1 7.6394400000e-01 2.8441770516e+01 2.6379533984e+01 4.8088271501e+01
1172 1 1 7.6394400000e-01 1.0201868097e+01 2.5387920870e+01 3.8150277604e+01
1173 1 1 7.6394400000e-01 3.8250725796e+00 1.6913201786e+01 6.0912551066e+01
1174 1 1 7.6394400000e-01 5.1076004021e+01 4.1661615987e+01 2.9450849365e+01
1175 1 1 7.6394400000e-01 1.1041575637e+01 1.6358805062e+01 1.5532973394e+01
1176 1 1 7.6394400000e-01 2.7927502832e+01 3.4167853939e+01 1.6090410649e+00
1177 1 1 7.6394400000e-01 4.2636820109e+01 1.6164848274e+01 2.7250678392e+01
1178 1 1 7.6394400000e-01 4.1112952304e+01 5.8773277641e+01 4.7307900617e+01
1179 1 1 7.6394400000e-01 5.0139482990e+01 1.2725914038e+01 6.9440782584e+00
1180 1 1 7.6394400000e-01 3.9420438952e+01 3.7478607316e+01 3.6839793196e+01
1181 1 1 7.6394400000e-01 4.0136762156e+01 2.6546294445e+01 5.6345067165e+01
1182 1 1 7.6394400000e-01 5.8900863199e+01 2.7151091624e+01 4.0644457332e+01
1183 1 1 7.6394400000e-01 2.4604313105e+01 1.0682175213e+01 2.5018386452e+01
1184 1 1 7.6394400000e-01 2.0868707383e+01 4.2115836009e+01 2.1076003524e+01
1185 1 1 7.6394400000e-01 6.3298824286e+01 5.8257171875e+01 5.2533782637e+01
1186 1 1 7.6394400000e-01 4.2267115597e+01 3.5526738752e+01 3.6679223062e+01
1187 1 1 7.6394400000e-01 1.1052819676e+01 5.4593560265e+01 5.7464940920e+01
1188 1 1 7.6394400000e-01 5.7292225183e+01 2.1225151849e+01 5.0976388105e+01
1189 1 1 7.6394400000e-01 4.7143997094e+01 1.7280241329e+01 2.1258419283e+01
1190 1 1 7.6394400000e-01 2.9890983465e+01 5.5970117139e+01 4.9385998132e+01
1191 1 1 7.6394400000e-01 4.3523620330e+01 8.5564350653e+00 1.4485104137e+01
1192 1 1 7.6394400000e-01 5.6907368827e+01 2.0949987716e+01 1.1821519530e+01
1193 1 1 7.6394400000e-01 4.7743882818e+00 2.2462557427e+01 5.1856645539e+01
1194 1 1 7.6394400000e-01 5.4145684246e+01 4.7163558954e+01 4.8807540659e+01
1195 1 1 7.6394400000e-01 3.8657625280e+01 6.6333205119e+00 4.9715314332e+01
1196 1 1 7.6394400000e-01 1.0695268683e+01 2.9189900622e+01 1.9773775467e+01
1197 1 1 7.6394400000e-01 2.4107435489e+01 3.1667977179e+00 8.2777465270e+00
1198 1 1 7.6394400000e-01 2.2099881409e+01 3.6519765933e+01 4.9413545786e+01
1199 1 1 7.6394400000e-01 6.2166376160e+01 2.4927988316e+01 3.0826928452e+01
1200 1 1 7.6394400000e-01 9.5854563521e+00 4.0424820204e+01 2.7158621881e+01
1201 1 1 7.6394400000e-01 1.6383600545e+01 3.5738266465e+01 2.3436677664e+01
1202 1 1 7.6394400000e-01 6.1965144881e+01 2.1478211002e+01 5.3759715056e+01
1203 1 1 7.6394400000e-01 5.0389702209e+01 1.1716498888e+01 5.2129235475e+01
1204 1 1 7.6394400000e-01 2.4403240403e+01 5.9407506976e+01 3.5766829288e+01
1205 1 1 7.6394400000e-01 7.3663711729e+00 4.5947289916e+01 3.7398216343e+00
1206 1 1 7.6394400000e-01 6.2502591830e+01 6.2612077225e+01 5.8487118350e+01
1207 1 1 7.6394400000e-01 2.9209730233e+01 2.2481178333e+01 3.4382606020e+01
1208 1 1 7.6394400000e-01 4.5034688932e+01 1.6641780792e+01 6.3005192169e+01
1209 1 1 7.6394400000e-01 5.0871196153e+01 1.3321879194e+01 2.2516878348e+01
1210 1 1 7.6394400000e-01 4.4602161779e+01 2.5607166578e+01 2.8179202642e+01
1211 1 1 7.6394400000e-01 3.4941818620e+01 4.1211428097e+00 5.1882684736e+01
1212 1 1 7.6394400000e-01 3.2492305803e+00 5.2142071329e+00 5.8101171605e+01
1213 1 1 7.6394400000e-01 5.1311761270e+01 4.8858949360e+01 2.1685021767e+01
1214 1 1 7.6394400000e-01 5.0942351079e+01 5.5755665561e+01 6.0773713071e+01
1215 1 1 7.6394400000e-01 1.4127870716e+01 6.2251703749e+01 1.4655307293e+01
1216 1 1 7.6394400000e-01 5.9333836645e+01 5.8706597430e+01 3.2391107659e+00
1217 1 1 7.6394400000e-01 3.5417224092e+01 3.0758453836e+01 5.0843417792e+01
1218 1 1 7.6394400000e-01 4.1904010791e+01 4.0835951253e+01 1.1143230369e+01
1219 1 1 7.6394400000e-01 3.0490854600e-01 1.8968467144e+01 5.4098508440e+00
1220 1 1 7.6394400000e-01 2.1582549656e+01 4.8132757152e+01 1.6862951304e+00
1221 1 1 7.6394400000e-01 6.7139936427e+00 6.0058792156e+01 5.9925330242e+01
1222 1 1 7.6394400000e-01 1.4677287374e+01 5.2595620070e+01 1.8249776956e+01
1223 1 1 7.6394400000e-01 2.0114898652e-01 3.5430263070e+01 4.6768039351e+01
1224 1 1 7.6394400000e-01 2.0171970828e+01 3.3972115695e+01 2.6686244773e+01
1225 1 1 7.6394400000e-01 3.7390203474e+01 1.9004582050e+01 8.3530562560e+00
1226 1 1 7.6394400000e-01 7.7934588249e+00 5.9154862882e+01 2.8764782352e+01
1227 1 1 7.6394400000e-01 4.5636111992e+01 5.0011490078e+01 6.1833691046e+01
1228 1 1 7.6394400000e-01 1.9071099318e+01 3.7659147483e+01 5.0504546829e+01
1229 1 1 7.6394400000e-01 1.2526206315e+01 5.1872040088e+01 5.7657440967e+00
1230 1 1 7.6394400000e-01 4.6259819595e+01 5.6305314237e+01 4.3847867687e+01
1231 1 1 7.6394400000e-01 3.4693589520e+01 2.3075783059e+01 3.3661408383e+01
1232 1 1 7.6394400000e-01 1.5410778995e+01 2.2085319304e+00 2.5543309541e+01
1233 1 1 7.6394400000e-01 6.0197848784e+01 2.0379552318e+00 9.0326899776e+00
1234 1 1 7.6394400000e-01 3.2235544223e+01 4.9878317715e+01 6.0599043896e+00
1235 1 1 7.6394400000e-01 4.0296505472e+01 1.1488293010e+01 3.9970918411e+01
1236 1 1 7.6394400000e-01 9.7144177633e+00 6.0768765209e+01 4.3610133678e+01
1237 1 1 7.6394400000e-01 4.5558360305e+01 2.2901804662e+01 3.2095391687e+01
1238 1 1 7.6394400000e-01 2.6282494205e+01 5.4749896104e+01 9.7501535129e+00
1239 1 1 7.6394400000e-01 5.8411056598e+01 5.6397951319e+01 4.1018514282e+01
1240 1 1 7.6394400000e-01 8.4436979266e+00 2.7905317392e+01 6.0696635143e+01
1241 1 1 7.6394400000e-01 2.4987820419e+01 1.4847544475e+00 3.1810842399e+00
1242 1 1 7.6394400000e-01 9.1479158267e+00 4.8866198952e+01 5.6878238770e+01
1243 1 1 7.6394400000e-01 9.9054294183e-01 2.3976939341e+01 3.6976930512e+01
1244 1 1 7.6394400000e-01 4.8515009230e+01 4.3346761516e+01 4.0315526926e+01
1245 1 1 7.6394400000e-01 5.6814341685e+01 5.7007780652e+01 9.1271065591e+00
1246 1 1 7.6394400000e-01 5.2854748448e+01 5.5642350084e+01 1.2138829930e+01
1247 1 1 7.6394400000e-01 6.3475818696e+01 1.6003992675e+01 3.0386606140e+01
1248 1 1 7.6394400000e-01 4.7980219585e+01 5.4865604459e+01 3.7872751310e+00
1249 1 1 7.6394400000e-01 5.9073913926e+01 3.9064233523e+01 8.9047949245e+00
1250 1 1 7.6394400000e-01 3.7444540459e+01 1.6416427178e+01 6.7929048204e+00
1251 1 1 7.6394400000e-01 1.8202054744e+01 4.1728033572e+00 4.3723671628e+01
1252 1 1 7.6394400000e-01 2.2475200230e+01 2.6027994004e+01 4.1314771086e+00
1253 1 1 7.6394400000e-01 1.3512342655e+00 1.5421457161e+01 9.0897009139e+00
1254 1 1 7.6394400000e-01 5.2681781025e+01 7.9076457085e-01 3.4203985126e+01
1255 1 1 7.6394400000e-01 3.2477617359e+01 1.3784585598e+00 4.7026613044e+01
1256 1 1 7.6394400000e-01 4.1628310856e+01 2.5468146878e+01 9.6272936877e+00
1257 1 1 7.6394400000e-01 7.4883927179e+00 3.2888946434e+01 2.0242885361e+01
1258 1 1 7.6394400000e-01 5.4582963505e+01 5.2288318102e+01 2.9419134716e+01
1259 1 1 7.6394400000e-01 2.8372352512e+01 5.7536653951e+01 4.2910053828e+01
1260 1 1 7.6394400000e-01 1.3359192342e+01 9.3795127257e+00 2.1722616821e+01
1261 1 1 7.6394400000e-01 4.5711188619e+01 1.0164239650e+01 1.2764829640e+01
1262 1 1 7.6394400000e-01 3.4792479246e+01 2.3985219362e+01 2.4826948550e+01
1263 1 1 7.6394400000e-01 3.4579766475e+00 1.9339421896e+01 4.5271238515e+01
1264 1 1 7.6394400000e-01 2.0436461459e+00 4.7095926580e+01 5.8113481477e+01
1265 1 1 7.6394400000e-01 5.8485223907e+01 6.3868269818e+01 5.3890569485e+00
1266 1 1 7.6394400000e-01 2.9334062990e+01 2.0516877613e+01 2.6350986173e+01
1267 1 1 7.6394400000e-01 4.3585075914e+01 5.5814637578e+01 9.9801823421e+00
1268 1 1 7.6394400000e-01 6.3915571895e+01 5.8274154120e+01 2.0715774928e+01
1269 1 1 7.6394400000e-01 3.6383768776e+01 3.4674419954e+01 4.3313366644e+01
1270 1 1 7.6394400000e-01 1.9121688297e+01 3.8509824106e+01 3.8910868551e+01
1271 1 1 7.6394400000e-01 1.1254160023e+00 1.4233975133e+01 7.5756570084e-01
1272 1 1 7.6394400000e-01 4.9183987717e+01 4.6054465776e+01 7.0384426376e+00
1273 1 1 7.6394400000e-01 1.1734467962e+01 4.5380524736e+01 4.5227264635e+01
1274 1 1 7.6394400000e-01 3.2225747454e+01 1.7930098380e+01 6.4058472570e+00
1275 1 1 7.6394400000e-01 3.5932773895e+01 2.5251512817e+01 3.0938454628e+01
1276 1 1 7.6394400000e-01 4.4396149992e+01 3.6365351527e+01 3.4394235974e+01
1277 1 1 7.6394400000e-01 4.0891019890e+01 1.8504435277e+00 3.5192271137e+01
1278 1 1 7.6394400000e-01 2.4149308480e+01 5.8221757671e+01 5.6862917334e+01
1279 1 1 7.6394400000e-01 8.1408517074e+00 2.6086264711e+01 3.2850959207e+01
1280 1 1 7.6394400000e-01 4.5794671490e+01 3.2169266959e+01 2.0632852696e+01
1281 1 1 7.6394400000e-01 1.8587794573e+01 2.5040870446e+01 2.6876333047e-01
1282 1 1 7.6394400000e-01 4.3445735974e+01 5.8344462887e+01 4.9267443376e+01
1283 1 1 7.6394400000e-01 8.3633354406e+00 8.3938254591e+00 1.7358999379e+01
1284 1 1 7.6394400000e-01 3.6947485127e+01 2.1300889172e+01 3.7158281930e+01
1285 1 1 7.6394400000e-01 5.6231228198e+01 3.2158105643e+01 1.7054440122e+01
1286 1 1 7.6394400000e-01 1.2505125636e+01 2.6248287438e+01 5.9672260187e+01
1287 1 1 7.6394400000e-01 3.9255357926e+01 3.8188443548e+01 3.4581536582e+01
1288 1 1 7.6394400000e-01 2.8410416963e+01 6.1633432407e+01 2.7418652498e+01
1289 1 1 7.6394400000e-01 4.8382683494e+01 4.0292084546e+01 1.4060603734e+01
1290 1 1 7.6394400000e-01 4.7320107746e+01 5.0379294026e+01 4.5273935811e+00
1291 1 1 7.6394400000e-01 4.1594887253e+01 3.8463730779e+01 5.7002911919e+01
1292 1 1 7.6394400000e-01 2.0768320428e+01 5.9046458011e+01 4.1232164566e+01
1293 1 1 7.6394400000e-01 6.2710733598e+01 4.4105438630e+00 6.3155013491e+01
1294 1 1 7.6394400000e-01 3.2019437275e+01 5.5366715782e+01 6.1185509375e+01
1295 1 1 7.6394400000e-01 5.4674569945e+01 9.2651247934e+00 1.6478157082e+01
1296 1 1 7.6394400000e-01 5.9919165504e+01 6.0843632262e+01 1.9208713714e+01
1297 1 1 7.6394400000e-01 2.0794784608e+01 4.1678392449e+01 2.8202527986e+01
1298 1 1 7.6394400000e-01 4.5489083671e+01 6.1392904585e+01 9.9588677832e+00
1299 1 1 7.6394400000e-01 2.6211792633e+00 3.6358732420e+01 2.3611745590e+01
1300 1 1 7.6394400000e-01 1.6736694225e+01 1.2250692333e+01 5.6693071680e+01
1301 1 1 7.6394400000e-01 5.8073674077e+01 3.3025480924e+01 3.2789524456e+01
1302 1 1 7.6394400000e-01 3.0683423304e+01 5.5809907958e+01 2.8277900282e+01
1303 1 1 7.6394400000e-01 5.3994054052e+01 3.8597802457e+01 3.1310292646e+01
1304 1 1 7.6394400000e-01 5.6310361575e+01 6.1776943625e+01 5.5825123852e+01
1305 1 1 7.6394400000e-01 7.6949392099e-01 3.9259143017e+01 6.2239997348e+00
1306 1 1 7.6394400000e-01 5.1588524723e+01 4.1705685428e+01 1.7320920432e-01
1307 1 1 7.6394400000e-01 6.2892010815e+01 2.5924783271e+01 5.1029867707e+00
1308 1 1 7.6394400000e-01 5.0192353834e+01 8.7529047580e+00 2.9198904359e+01
1309 1 1 7.6394400000e-01 3.5433421687e+01 1.9666413651e+01 3.1859960541e+01
1310 1 1 7.6394400000e-01 4.4402476791e-01 2.4387328373e+01 4.5468883894e+01
1311 1 1 7.6394400000e-01 5.0314122352e+01 3.1834878049e+01 6.2346444880e+01
1312 1 1 7.6394400000e-01 3.8515432768e+01 7.3392072999e+00 5.3247618590e+01
1313 1 1 7.6394400000e-01 5.6130846537e+01 1.6923553497e+01 1.8397754838e+01
1314 1 1 7.6394400000e-01 2.9925566015e+01 6.6223367327e-01 1.5904468209e+01
1315 1 1 7.6394400000e-01 4.2373358899e+01 6.2099782207e+01 2.2617001596e+01
1316 1 1 7.6394400000e-01 2.3791921635e+01 8.9831448917e+00 2.5247849757e+01
1317 1 1 7.6394400000e-01 3.8207649686e+01 3.2032937110e+01 7.1757585117e+00
1318 1 1 7.6394400000e-01 2.9251967497e+00 2.2706784480e+01 2.3771340451e+00
1319 1 1 7.6394400000e-01 6.1856168788e+01 2.5068744048e+00 2.0848104175e+01
1320 1 1 7.6394400000e-01 1.2813865158e+01 5.4242018105e+01 5.2787218578e+01
1321 1 1 7.6394400000e-01 2.8207206012e+01 5.9442991852e+01 6.0568267831e+01
1322 1 1 7.6394400000e-01 2.6293162649e+00 1.1165776183e+00 1.0386379553e+01
1323 1 1 7.6394400000e-01 5.1101293511e+01 5.2529969579e+01 3.0778420120e+01
1324 1 1 7.6394400000e-01 5.4785720379e+01 5.2908145943e+01 5.7161370592e+00
1325 1 1 7.6394400000e-01 5.4791833741e+00 4.7466354621e+01 5.8051220705e+01
1326 1 1 7.6394400000e-01 1.8495055556e+00 1.9192590629e+01 4.6396605543e+01
1327 1 1 7.6394400000e-01 4.4074118274e+01 7.0000992727e-01 2.4620782328e+01
1328 1 1 7.6394400000e-01 5.9018138321e+01 2.5434136365e+01 5.3023890621e+01
1329 1 1 7.6394400000e-01 6.4604662631e+00 8.3673667804e+00 2.7225920390e+01
1330 1 1 7.6394400000e-01 5.2390957732e+01 1.4883973628e+00 4.7212642340e+01
1331 1 1 7.6394400000e-01 2.3061536726e+01 4.8249728322e+01 2.9193126303e+01
1332 1 1 7.6394400000e-01 1.9095204287e+01 2.9914567094e+01 4.5181196886e+01
1333 1 1 7.6394400000e-01 4.1075594893e+01 5.7751484453e+01 5.8906657275e+01
1334 1 1 7.6394400000e-01 2.6819070804e+01 5.0335615648e+01 4.1392854548e+01
1335 1 1 7.6394400000e-01 6.6359094483e+00 2.6980623145e+01 2.7096719325e+01
1336 1 1 7.6394400000e-01 2.5042540807e+01 5.7624982098e+01 5.0400261294e+01
1337 1 1 7.6394400000e-01 4.3995071423e+01 1.5763476397e+01 4.3593947533e+01
1338 1 1 7.6394400000e-01 1.9156542748e+01 2.1100397965e+01 4.7585052134e+01
1339 1 1 7.6394400000e-01 4.2172738458e+01 5.3121885928e+00 4.8096967735e+01
1340 1 1 7.6394400000e-01 6.5334135736e+00 5.5911354769e+01 1.2909096106e+01
1341 1 1 7.6394400000e-01 1.2028856137e+01 5.4649375348e+01 4.2225788100e+01
1342 1 1 7.6394400000e-01 2.7942599340e+01 2.7366721433e+01 5.2765341566e+00
1343 1 1 7.6394400000e-01 4.0279082414e+01 1.8079654918e+01 1.8660717656e+01
1344 1 1 7.6394400000e-01 5.3837629979e+00 2.4158334567e+00 5.3927475755e+01
1345 1 1 7.6394400000e-01 4.0595038695e+01 4.7850182763e+01 6.2574359295e+01
1346 1 1 7.6394400000e-01 5.6322564093e+00 2.7240544261e+01 3.4298647395e+01
1347 1 1 7.6394400000e-01 5.5421138437e+01 1.4560101402e+00 5.7510121682e+01
1348 1 1 7.6394400000e-01 1.2600395537e+01 2.1442167935e+01 6.2925795576e+01
1349 1 1 7.6394400000e-01 3.3707140915e+01 5.0641235811e+01 3.6532830900e-01
1350 1 1 7.6394400000e-01 6.0122364388e+01 5.6703895727e+01 3.1369599197e+01
1351 1 1 7.6394400000e-01 5.6051224006e+00 4.1813538540e+00 2.5108447732e-01
1352 1 1 7.6394400000e-01 5.3444504174e+01 1.8282922662e+01 5.4853475716e+01
1353 1 1 7.6394400000e-01 3.2799211890e+01 1.5685014920e+01 3.3408205680e+01
1354 1 1 7.6394400000e-01 3.0488855290e+01 2.6614088426e+00 2.1169643382e+01
1355 1 1 7.6394400000e-01 4.0466510954e+01 2.4332849671e+01 2.3284547657e+01
1356 1 1 7.6394400000e-01 1.0380261834e+00 1.6940247949e+01 3.3134432967e+01
1357 1 1 7.6394400000e-01 1.7793708794e+01 1.3962692646e+01 2.1271964347e+01
1358 1 1 7.6394400000e-01 1.2960108285e+01 6.0518415470e+01 4.3961884757e+01
1359 1 1 7.6394400000e-01 5.3582485191e+01 2.8278804835e+01 1.1267839714e+01
1360 1 1 7.6394400000e-01 6.1247310444e+01 2.0891422864e+01 7.6826798542e+00
1361 1 1 7.6394400000e-01 4.8492281355e+01 6.0638825032e+01 4.6053058458e+01
1362 1 1 7.6394400000e-01 7.1364790772e+00 2.9798929571e+01 1.3041340640e+01
1363 1 1 7.6394400000e-01 4.2317275429e+01 6.8859555450e+00 3.5217939226e+01
1364 1 1 7.6394400000e-01 1.7222335143e+01 4.7753482910e+01 1.6898258765e+01
1365 1 1 7.6394400000e-01 2.6627670203e+01 3.8302146456e+01 4.3476645659e+01
1366 1 1 7.6394400000e-01 3.4009302872e+01 4.6357247990e+01 2.2486101968e+00
1367 1 1 7.6394400000e-01 2.5387986291e+01 4.6181479882e+01 1.1643399936e+01
1368 1 1 7.6394400000e-01 4.0088470560e+01 4.9912261639e+01 2.6756530725e+01
1369 1 1 7.6394400000e-01 1.4209897606e+01 2.9977295967e+01 2.2020323005e+01
1370 1 1 7.6394400000e-01 2.9104688922e+01 1.4066550850e+01 5.5644904645e+01
1371 1 1 7.6394400000e-01 1.4232546314e+01 5.9250565973e+01 5.6772691349e+01
1372 1 1 7.6394400000e-01 5.1711123179e+00 1.8926789784e+01 5.6684153673e+01
1373 1 1 7.6394400000e-01 6.1936956873e+00 2.1571823551e+01 2.1508162788e+01
1374 1 1 7.6394400000e-01 2.9654607002e+01 5.8075810775e+01 5.8232857501e+00
1375 1 1 7.6394400000e-01 4.5334802820e+01 3.8713528238e+01 4.5740859964e+01
1376 1 1 7.6394400000e-01 5.1026872723e+01 7.6694148603e-01 2.8893497073e+01
1377 1 1 7.6394400000e-01 4.7580483300e+00 3.0025813253e+01 4.8590097238e+01
1378 1 1 7.6394400000e-01 5.2416574651e+01 4.6471954681e+01 2.7374670167e+01
1379 1 1 7.6394400000e-01 9.1994998055e+00 1.7388420501e+01 1.6904902603e+01
1380 1 1 7.6394400000e-01 5.7255779495e+01 3.6400533802e+01 6.2183791763e+01
1381 1 1 7.6394400000e-01 3.1046431936e+01 3.4822762372e+00 1.7535413294e+01
1382 1 1 7.6394400000e-01 2.0027717667e+01 5.5485424964e+01 6.3438606527e+01
1383 1 1 7.6394400000e-01 4.6581443987e+01 2.7554219405e+01 9.4777991726e+00
1384 1 1 7.6394400000e-01 2.7730092305e+01 5.9535688269e+01 9.7788171281e-01
1385 1 1 7.6394400000e-01 2.8579238229e+00 3.3821261142e-01 4.1277722587e+01
1386 1 1 7.6394400000e-01 6.0154770501e+01 5.6671781582e+01 3.4148658119e+01
1387 1 1 7.6394400000e-01 3.0410636511e+01 5.1389008231e+01 5.9201704104e+01
1388 1 1 7.6394400000e-01 2.9751697504e+01 3.0520278935e+01 3.2495587519e+00
1389 1 1 7.6394400000e-01 1.7615766749e+00 2.6411431226e+01 2.4701665675e+01
1390 1 1 7.6394400000e-01 6.3147100707e+01 4.9191709021e+00 3.1157568325e+01
1391 1 1 7.6394400000e-01 5.1861065275e+01 6.8969068746e+00 5.9245963275e+01
1392 1 1 7.6394400000e-01 1.6284078922e+01 9.7557216817e+00 2.3896479813e+01
1393 1 1 7.6394400000e-01 5.7705306616e+01 5.1623115413e+01 3.3687569250e+01
1394 1 1 7.6394400000e-01 4.8679351755e+01 1.5474823434e+01 2.8205099452e+01
1395 1 1 7.6394400000e-01 3.3585799821e+01 3.3088837875e+01 3.8030687805e+01
1396 1 1 7.6394400000e-01 5.8127674047e+01 4.7743978155e+01 3.5825164955e+01
1397 1 1 7.6394400000e-01 4.3422564232e+01 1.4646489700e+01 1.8772049247e+01
1398 1 1 7.6394400000e-01 4.7467063794e+01 4.0222033310e+00 5.9052652054e+01
1399 1 1 7.6394400000e-01 4.6589932839e+01 4.9192873177e+00 6.7227647636e+00
1400 1 1 7.6394400000e-01 1.6247682237e+01 2.3822357056e+01 3.4888017625e+01
1401 1 1 7.6394400000e-01 4.7516961380e+01 2.3881787745e+00 5.1980330942e+01
1402 1 1 7.6394400000e-01 4.1822918723e+01 2.6479280152e+01 3.0343184127e+01
1403 1 1 7.6394400000e-01 3.2553673227e+01 1.5657629425e+01 1.3765542473e+01
1404 1 1 7.6394400000e-01 2.7621052601e+01 2.3747225007e+01 3.2384324887e+00
1405 1 1 7.6394400000e-01 4.1386546631e+01 1.9120379752e+01 2.1439006021e+01
1406 1 1 7.6394400000e-01 2.8819403009e+01 4.1686198927e+01 2.7635222375e+01
1407 1 1 7.6394400000e-01 2.7545284440e+01 5.3746544945e+01 3.4699959469e+01
1408 1 1 7.6394400000e-01 2.1474469251e+01 3.3318984211e+01 3.2165534518e+01
1409 1 1 7.6394400000e-01 4.4813819139e+01 5.5754857794e+01 4.3045935572e+01
1410 1 1 7.6394400000e-01 2.1750349285e+01 1.7398852377e+01 3.2436152065e+01
1411 1 1 7.6394400000e-01 2.7139293870e+01 6.3294662360e+00 2.0611612719e+00
1412 1 1 7.6394400000e-01 3.3175758108e+01 1.8197977370e+01 1.4992383319e+00
1413 1 1 7.6394400000e-01 8.3199221429e+00 2.7456493501e+01 3.3524863515e+01
1414 1 1 7.6394400000e-01 1.8763854855e+01 4.2180588960e+01 4.1781862975e+01
1415 1 1 7.6394400000e-01 4.2308907294e+01 1.1555576403e+01 4.7083555872e+01
1416 1 1 7.6394400000e-01 3.5886513814e+01 3.7153205196e+01 2.0231060439e-01
1417 1 1 7.6394400000e-01 3.2960316751e+01 4.5712661552e+01 5.5257413383e+01
1418 1 1 7.6394400000e-01 3.2511416049e+01 5.2938792218e+01 5.2981402162e+01
1419 1 1 7.6394400000e-01 1.1915509105e+01 1.1555737732e+01 2.6264190199e+00
1420 1 1 7.6394400000e-01 3.8001551924e+01 2.0095531230e+01 2.0110910280e+01
1421 1 1 7.6394400000e-01 1.2856575218e+01 5.7301358043e+01 6.8590507614e+00
1422 1 1 7.6394400000e-01 3.4566063376e+01 5.2395206658e+01 3.1871716683e+01
1423 1 1 7.6394400000e-01 5.8007873063e+01 6.7166438888e+00 1.4203491130e+01
1424 1 1 7.6394400000e-01 2.0298961905e+01 1.2370392645e+01 6.4835311080e+00
1425 1 1 7.6394400000e-01 5.7364799482e+01 1.9010594599e+01 2.2008154223e+01
1426 1 1 7.6394400000e-01 1.6211006288e+01 4.7089094396e+01 9.6012617974e+00
1427 1 1 7.6394400000e-01 6.0904269429e+01 6.2797188135e+01 3.9341733992e+01
1428 1 1 7.6394400000e-01 5.7503368094e+01 3.1560138848e+01 5.8629444313e+01
1429 1 1 7.6394400000e-01 4.7971638703e+01 5.0461555903e+00 1.4754997337e+01
1430 1 1 7.6394400000e-01 4.8573603387e+01 1.8395117691e+01 6.2524653364e+01
1431 1 1 7.6394400000e-01 4.6871761363e+01 1.3749257130e+01 3.2756175376e+01
1432 1 1 7.6394400000e-01 4.6071715064e+00 1.1375242270e+01 1.8785384341e+01
1433 1 1 7.6394400000e-01 2.8411495396e+01 6.0942748248e+00 6.3978910867e+01
1434 1 1 7.6394400000e-01 2.8357995209e+01 8.9357448479e+00 3.6149273262e+01
1435 1 1 7.6394400000e-01 1.0939312158e+01 2.0090367095e+01 6.3205431383e+01
1436 1 1 7.6394400000e-01 4.4105970205e+01 3.7279176972e+00 4.4506716738e+01
1437 1 1 7.6394400000e-01 1.3294571122e+01 1.6766441106e+01 6.1822001861e+01
1438 1 1 7.6394400000e-01 9.7182564631e+00 1.1882420464e+01 1.2263476945e+01
1439 1 1 7.6394400000e-01 6.2223430134e+01 3.3496891976e+01 2.4802866696e+01
1440 1 1 7.6394400000e-01 3.3802431600e+01 3.0538673331e+01 5.9414943501e+01
1441 1 1 7.6394400000e-01 2.4346931376e+01 4.2336650890e+01 3.5559663220e+01
1442 1 1 7.6394400000e-01 3.7727768455e+00 2.6210770079e+01 5.9837177875e+01
1443 1 1 7.6394400000e-01 1.7410506503e+01 3.0016851415e+01 3.1303305646e+01
1444 1 1 7.6394400000e-01 2.6361967580e+01 1.3431411159e+01 2.4873258565e+01
1445 1 1 7.6394400000e-01 6.1565612074e+00 4.3999038828e+00 2.9274776836e+01
1446 1 1 7.6394400000e-01 5.1333499555e+01 5.4204442442e+01 2.5736986290e+00
1447 1 1 7.6394400000e-01 5.9955164941e+01 2.2519949998e+01 2.9525998995e+01
1448 1 1 7.6394400000e-01 4.8927883670e-01 2.1447033463e+01 4.0738684452e+01
1449 1 1 7.6394400000e-01 4.7281105133e+01 5.4971448102e+01 2.2331065381e+01
1450 1 1 7.6394400000e-01 5.2644727832e+01 2.2943829111e+01 4.6931590346e+01
1451 1 1 7.6394400000e-01 1.6657272421e+01 2.1329536834e+01 6.2863698408e+01
1452 1 1 7.6394400000e-01 6.3382840212e+01 4.6672781107e+01 5.1406447292e+01
1453 1 1 7.6394400000e-01 2.2853799378e+01 3.6392965638e+01 3.4530542167e+01
1454 1 1 7.6394400000e-01 6.3261441684e+01 4.5088751654e+01 5.6960729799e+01
1455 1 1 7.6394400000e-01 6.4181972289e+00 4.9627513034e+01 4.9577291330e+01
1456 1 1 7.6394400000e-01 5.4755513498e+01 4.9741729462e+01 1.2321260946e+01
1457 1 1 7.6394400000e-01 3.9500335875e+01 2.9434047274e+01 1.6529302765e+01
1458 1 1 7.6394400000e-01 3.5167576206e+00 2.3951005180e+01 3.5469441908e+01
1459 1 1 7.6394400000e-01 5.7768963019e+01 1.3618849953e+01 2.3221871349e+01
1460 1 1 7.6394400000e-01 5.0880697743e+01 5.1437517147e+01 5.2269778141e+01
1461 1 1 7.6394400000e-01 6.3050895164e+01 3.8319382028e+01 3.8855754931e+01
1462 1 1 7.6394400000e-01 3.2149647739e+01 2.3622384016e+01 4.5395361666e+01
1463 1 1 7.6394400000e-01 5.3365584423e+01 2.3647410421e+01 1.4578546556e+01
1464 1 1 7.6394400000e-01 5.2470081970e+01 6.7652194903e+00 5.5599251664e+01
1465 1 1 7.6394400000e-01 5.3767354001e+01 4.6058682003e-01 5.7246875749e+01
1466 1 1 7.6394400000e-01 4.7855309751e+01 1.6931481108e+01 1.1970770387e+01
1467 1 1 7.6394400000e-01 4.1419180885e+01 5.9070911716e+01 4.4110639595e+00
1468 1 1 7.6394400000e-01 3.8655102112e+00 7.0087567412e+00 5.2055539329e+01
1469 1 1 7.6394400000e-01 3.0368906858e+01 1.7279655950e+01 1.4266158231e+01
1470 1 1 7.6394400000e-01 5.6376432764e+01 3.8583930655e+01 5.4410959312e+01
1471 1 1 7.6394400000e-01 2.1399081110e+01 5.4154710484e+00 4.9105916138e+01
1472 1 1 7.6394400000e-01 5.2674889889e+01 5.1360782510e+01 6.1662359979e+01
1473 1 1 7.6394400000e-01 3.6680372270e+01 3.6682279788e+01 6.2614312666e+01
1474 1 1 7.6394400000e-01 3.4691380497e+01 6.7667563191e+00 3.8117843832e+01
1475 1 1 7.6394400000e-01 3.7685445116e+01 2.3879841824e+01 6.2579044348e+00
1476 1 1 7.6394400000e-01 5.3982541668e+01 1.9181516053e+01 7.0458333776e+00
1477 1 1 7.6394400000e-01 5.9054642933e+01 3.0764220482e+01 1.8673696462e+01
1478 1 1 7.6394400000e-01 4.8988286185e+01 2.2656863905e+01 2.3247002249e+01
1479 1 1 7.6394400000e-01 1.3074808352e+01 1.3616813145e+01 4.7625691569e+01
1480 1 1 7.6394400000e-01 3.5394307121e+01 5.1797919758e+00 1.9443049705e+01
1481 1 1 7.6394400000e-01 3.9494128734e+01 3.3837569112e+01 5.7481457778e+01
1482 1 1 7.6394400000e-01 5.7017893030e+01 5.6449573034e+01 5.9154384858e+01
1483 1 1 7.6394400000e-01 5.9806485216e+01 1.0844955487e+01 1.4740773940e+01
1484 1 1 7.6394400000e-01 1.6275690766e+01 6.8484968743e+00 5.3659822015e+01
1485 1 1 7.6394400000e-01 5.1285373478e+01 6.3168502667e+00 2.7621313672e+01
1486 1 1 7.6394400000e-01 5.6797571832e+01 2.3199082836e+01 1.6846958039e+01
1487 1 1 7.6394400000e-01 1.2961359312e+01 2.4012516456e+01 4.1464655461e+01
1488 1 1 7.6394400000e-01 3.2672731033e+01 2.8534537571e+01 4.1740609809e+01
1489 1 1 7.6394400000e-01 6.3171046816e+01 3.0756951188e+01 2.6433041584e+01
1490 1 1 7.6394400000e-01 6.0940031759e+01 1.1321534447e+01 5.2056987643e+01
1491 1 1 7.6394400000e-01 5.6036635037e+01 1.7565689832e+01 4.8607964535e+01
1492 1 1 7.6394400000e-01 3.2922534367e+01 3.1327936317e+01 5.2364060000e+01
1493 1 1 7.6394400000e-01 4.2147052756e+01 4.0956596492e+01 7.2773169618e-02
1494 1 1 7.6394400000e-01 5.7481256190e+01 2.6067355299e+01 5.8359046329e+01
1495 1 1 7.6394400000e-01 4.2380187425e+01 5.8412518584e+00 1.2503710870e+01
1496 1 1 7.6394400000e-01 3.3598147407e+01 2.1583634121e+01 1.3494673580e+01
1497 1 1 7.6394400000e-01 4.6307919053e+01 5.4967160503e+01 4.1462349995e+01
1498 1 1 7.6394400000e-01 5.5727656376e+00 1.8736983203e+01 3.8071746579e+01
1499 1 1 7.6394400000e-01 2.0227715702e+00 1.1348447193e+01 4.7727481124e+01
1500 1 1 7.6394400000e-01 2.8743444910e+00 5.5551414146e+00 1.4073413886e+01
1501 1 1 7.6394400000e-01 4.8776690390e+01 5.9486715516e+01 1.9635185285e+01
1502 1 1 7.6394400000e-01 1.4815463039e+01 3.6226406197e+01 2.9639843637e+01
1503 1 1 7.6394400000e-01 6.1779894111e+01 6.2673150426e+01 6.6116552047e+00
1504 1 1 7.6394400000e-01 1.6319183348e+01 1.5676350451e+01 8.6030865705e+00
1505 1 1 7.6394400000e-01 5.2813043543e+01 8.2562349314e+00 4.4876914175e+01
1506 1 1 7.6394400000e-01 5.7787588570e-01 2.0849593457e+01 5.0082176008e+01
1507 1 1 7.6394400000e-01 3.9486612893e+01 4.9203307900e+01 1.6217286789e+01
1508 1 1 7.6394400000e-01 3.3482611980e+01 8.6625549815e+00 3.6438610485e+01
1509 1 1 7.6394400000e-01 2.1977216620e+01 5.6615779828e+01 5.6831423060e+01
1510 1 1 7.6394400000e-01 3.6794878499e+01 5.1101011422e+01 3.0197562151e+01
1511 1 1 7.6394400000e-01 1.4115760795e-01 5.3862716377e+01 2.6629619531e+01
1512 1 1 7.6394400000e-01 3.9262866202e+01 2.4469995896e+01 7.4664809731e+00
1513 1 1 7.6394400000e-01 4.4110675279e+01 9.2375734423e+00 5.7373704322e+01
1514 1 1 7.6394400000e-01 5.4447703078e+00 6.6725858999e+00 5.3512764265e+01
1515 1 1 7.6394400000e-01 1.1359990662e+01 2.1494362391e+01 3.7164707990e+01
1516 1 1 7.6394400000e-01 6.1907233084e+01 6.2902560801e+01 3.2344088051e+01
1517 1 1 7.6394400000e-01 2.7226297799e+01 3.3201932949e+01 3.4164214272e+00
1518 1 1 7.6394400000e-01 1.9999580526e+01 1.8416522768e+01 3.9598030436e+01
1519 1 1 7.6394400000e-01 1.9795637186e+01 3.0788594407e+01 1.5574790908e+01
1520 1 1 7.6394400000e-01 5.8690757080e+01 3.6067628201e+01 1.4816757627e+01
1521 1 1 7.6394400000e-01 3.9484468105e+01 5.6584196102e+01 4.2253853542e+01
1522 1 1 7.6394400000e-01 6.0735141208e+01 2.8582642607e+01 3.6218158237e+01
1523 1 1 7.6394400000e-01 5.0425686686e+01 4.2059162817e+01 5.0924964204e+01
1524 1 1 7.6394400000e-01 5.4111404484e+01 2.7596183668e+01 4.5572266318e+00
1525 1 1 7.6394400000e-01 3.1884921799e+01 4.3553849841e+01 2.7035366895e+01
1526 1 1 7.6394400000e-01 1.8733176869e+01 3.4998887630e+01 5.8374733793e+00
1527 1 1 7.6394400000e-01 6.4012089666e+00 3.3203717635e+00 4.1034824769e+01
1528 1 1 7.6394400000e-01 6.3046205948e+01 1.8067772530e+01 5.1865064619e+01
1529 1 1 7.6394400000e-01 1.3578115477e+01 4.8126120946e+01 1.5001245756e+01
1530 1 1 7.6394400000e-01 3.4764869125e+01 2.5002164526e+01 4.8294151463e+00
1531 1 1 7.6394400000e-01 5.7916845733e+01 5.1959866825e+01 6.9753177611e+00
1532 1 1 7.6394400000e-01 1.2374366520e+01 3.3340035254e+01 4.1490027428e+01
1533 1 1 7.6394400000e-01 4.8828008060e+00 1.0171572053e+01 1.4698167845e+00
1534 1 1 7.6394400000e-01 4.3020112782e+01 1.5016170324e+01 6.0786691129e+01
1535 1 1 7.6394400000e-01 4.7842127426e+01 3.6764666213e+01 3.9541351330e+00
1536 1 1 7.6394400000e-01 6.2881605265e+01 2.9251658655e+01 2.6761982444e+01
1537 1 1 7.6394400000e-01 2.0183221783e+01 1.9212229390e+01 2.2309135507e+01
1538 1 1 7.6394400000e-01 5.9592183662e+01 4.4905769291e+01 6.1083461568e+01
1539 1 1 7.6394400000e-01 4.9069254195e+01 1.7025035715e+01 6.7271784875e+00
1540 1 1 7.6394400000e-01 2.8866004573e+01 1.5479422286e+01 1.2017955977e+01
1541 1 1 7.6394400000e-01 6.2462919817e+01 2.8231727705e+01 3.8196204553e+01
1542 1 1 7.6394400000e-01 6.0222005200e+00 2.7248600422e+01 4.1745357538e+01
1543 1 1 7.6394400000e-01 8.9216787820e+00 5.3838056701e+01 2.5114013335e+01
1544 1 1 7.6394400000e-01 9.8313310742e+00 2.3177661816e+00 5.1257771560e+01
1545 1 1 7.6394400000e-01 4.5953135180e+01 1.2377547693e+01 5.0208766827e+01
1546 1 1 7.6394400000e-01 2.0214531318e+01 4.5157108768e+01 2.2666370501e+00
1547 1 1 7.6394400000e-01 4.6451838793e+01 4.7173938722e+01 5.1252753951e+01
1548 1 1 7.6394400000e-01 2.9379857388e+01 1.5627732677e+01 4.5509468501e+01
1549 1 1 7.6394400000e-01 1.7993477565e+01 5.9204218124e+01 2.3904038103e+01
1550 1 1 7.6394400000e-01 6.3408701243e+01 3.2200388478e+00 6.2519606601e+01
1551 1 1 7.6394400000e-01 3.6624748552e+01 3.2935781299e+01 5.1068070818e+01
1552 1 1 7.6394400000e-01 2.8418575123e+01 5.4889219192e+01 2.8889926247e+01
1553 1 1 7.6394400000e-01 4.9982410437e+01 2.5397241765e+00 1.1450495810e+01
1554 1 1 7.6394400000e-01 3.0440664995e+01 5.7635078747e+01 5.0263401880e+01
1555 1 1 7.6394400000e-01 5.2037548944e+01 3.7471247860e+01 1.4723169363e+01
1556 1 1 7.6394400000e-01 5.1650466537e+01 3.9067758134e+01 2.0501665949e+00
1557 1 1 7.6394400000e-01 1.5275309781e+01 4.5232117931e+01 1.3638775695e+01
1558 1 1 7.6394400000e-01 3.0667294361e+01 2.9792607216e+01 5.3991412762e+01
1559 1 1 7.6394400000e-01 4.2440308412e+01 2.0996982217e+01 6.0612451178e+01
1560 1 1 7.6394400000e-01 3.4704850846e+01 5.1356742069e+01 7.7705893065e+00
1561 1 1 7.6394400000e-01 1.2044394611e+01 4.9212642505e+01 5.7128767148e+01
1562 1 1 7.6394400000e-01 3.4501990608e+01 2.5228852492e+01 4.2041654199e+01
1563 1 1 7.6394400000e-01 3.3682934911e+01 4.3973013812e+01 3.8730418513e+00
1564 1 1 7.6394400000e-01 1.1039909557e+01 1.0911744003e+01 1.0971857280e+01
1565 1 1 7.6394400000e-01 3.5167476059e+01 6.0369071938e+01 3.4763616769e+01
1566 1 1 7.6394400000e-01 1.3195009942e+01 5.1703807253e+01 1.0090363803e+01
1567 1 1 7.6394400000e-01 1.8948241152e+01 5.1623736209e+01 4.0237186438e+01
1568 1 1 7.6394400000e-01 2.2248392198e+01 4.5895110547e+01 1.3400355801e+01
1569 1 1 7.6394400000e-01 3.9894798255e+01 3.3989966749e+01 6.2585875213e+01
1570 1 1 7.6394400000e-01 3.3772692072e+01 5.2830976419e+01 3.5490399188e+01
1571 1 1 7.6394400000e-01 3.1149642069e+01 6.3262357562e+01 3.9868756480e+01
1572 1 1 7.6394400000e-01 1.0481310210e+00 1.3632563171e+01 2.9489653048e+01
1573 1 1 7.6394400000e-01 2.8239589646e+01 1.8010443949e+01 3.0930751051e+01
1574 1 1 7.6394400000e-01 6.3023938738e+01 4.9387527078e+00 1.9977314198e+01
1575 1 1 7.6394400000e-01 4.9707964376e+01 3.3770189941e+01 2.0207824652e+01
1576 1 1 7.6394400000e-01 2.6962291102e+01 2.5743308251e+01 1.0686560048e+01
1577 1 1 7.6394400000e-01 3.0272286591e+00 1.3577167470e+01 3.7375085643e+01
1578 1 1 7.6394400000e-01 3.9088480158e+01 4.9755268553e+01 6.3848795707e+01
1579 1 1 7.6394400000e-01 4.5124997879e+01 1.4023214852e+01 2.7573054548e+01
1580 1 1 7.6394400000e-01 4.6796503674e+01 5.6426824280e+01 5.4925523026e+01
1581 1 1 7.6394400000e-01 5.8851976055e+01 5.9049383476e-01 2.0444730236e+01
1582 1 1 7.6394400000e-01 1.6424879396e+01 5.6636076786e+00 6.3827169856e+01
1583 1 1 7.6394400000e-01 3.7724636070e+01 2.9505138031e+01 5.6421047407e+01
1584 1 1 7.6394400000e-01 4.2314435225e+01 5.0638211346e+00 9.5038583344e+00
1585 1 1 7.6394400000e-01 3.0729861958e+00 5.2659537576e+01 1.1404577529e+01
1586 1 1 7.6394400000e-01 4.2141518915e+01 1.6433581051e+01 5.9048736445e+01
1587 1 1 7.6394400000e-01 5.2518007145e+01 7.3371881395e+00 3.5395015537e+00
1588 1 1 7.6394400000e-01 1.2617537000e+01 4.4517913468e+01 4.0247169747e+01
1589 1 1 7.6394400000e-01 1.1353525619e+01 4.8563812085e+01 1.2711847112e+01
1590 1 1 7.6394400000e-01 3.1015291927e+01 4.7772648875e+01 3.0481131229e+01
1591 1 1 7.6394400000e-01 3.4383283484e+01 4.4814114012e+01 6.1847012903e+01
1592 1 1 7.6394400000e-01 3.6725451511e+01 3.5496142819e+00 2.6301302265e+00
1593 1 1 7.6394400000e-01 5.7619251025e+01 3.7248549353e+01 3.7643379317e+01
1594 1 1 7.6394400000e-01 1.8474960774e+01 1.8155940812e+01 4.4204795397e+01
1595 1 1 7.6394400000e-01 4.4365379390e+01 5.2732958514e+01 2.1863923488e+01
1596 1 1 7.6394400000e-01 3.9697538949e+00 1.2177785044e+01 3.6129557603e+00
1597 1 1 7.6394400000e-01 3.4766667967e+01 1.4253850394e+01 1.9537355536e+00
1598 1 1 7.6394400000e-01 4.5726934136e+01 2.4131852775e+01 4.0046994014e+01
1599 1 1 7.6394400000e-01 2.4134137874e+01 7.8951382111e+00 4.1463027694e+01
1600 1 1 7.6394400000e-01 4.6104445966e+01 5.7240931813e+01 1.5508366776e+01
1601 1 1 7.6394400000e-01 5.0853806039e+01 5.8705503451e+01 1.8061843838e+00
1602 1 1 7.6394400000e-01 6.3514138611e+01 4.4407885211e+01 7.4868332965e+00
1603 1 1 7.6394400000e-01 2.3964461585e+01 1.7720472795e+01 5.3425924030e+01
1604 1 1 7.6394400000e-01 4.3248126331e+01 3.7982692836e+01 5.6610353696e+01
1605 1 1 7.6394400000e-01 5.0151824528e+01 6.1127017082e+01 4.2883642181e+00
1606 1 1 7.6394400000e-01 6.1725090453e+01 2.7675330961e+01 1.0130551458e+01
1607 1 1 7.6394400000e-01 4.2922535749e+01 1.1702498889e+01 1.5921916297e+01
1608 1 1 7.6394400000e-01 4.5544194624e+01 5.1017532674e+01 4.5069199477e+01
1609 1 1 7.6394400000e-01 3.0019943129e+00 2.4965694068e+00 2.7325519008e+01
1610 1 1 7.6394400000e-01 1.9663993520e+01 4.9716446267e+01 3.8909957587e+01
1611 1 1 7.6394400000e-01 5.4262041509e+00 4.7156504672e+01 3.9250898501e+01
1612 1 1 7.6394400000e-01 1.4624533443e+01 5.0283496710e+00 4.7009371467e+00
1613 1 1 7.6394400000e-01 5.0310869616e+01 2.9509987895e+01 3.2901189300e+00
1614 1 1 7.6394400000e-01 7.9050169938e-01 5.9852169458e+01 2.3751758696e+01
1615 1 1 7.6394400000e-01 3.2206621694e+01 5.4374142929e+01 3.0450725736e+01
1616 1 1 7.6394400000e-01 2.3697480233e+01 2.9786763691e+00 4.9777400507e+01
1617 1 1 7.6394400000e-01 2.4561349451e+01 4.9280454254e+01 3.1401679998e+01
1618 1 1 7.6394400000e-01 3.7447499983e+01 2.4179817148e+01 9.7152849337e+00
1619 1 1 7.6394400000e-01 1.6435694603e+01 3.9333605931e+00 7.0541369506e+00
1620 1 1 7.6394400000e-01 1.0016876805e+01 3.6453383501e+01 1.8543770012e+01
1621 1 1 7.6394400000e-01 5.7847187383e+01 3.6987277218e+01 6.0587801083e+01
1622 1 1 7.6394400000e-01 5.1623881930e-01 7.6815008847e+00 6.9838073635e+00
1623 1 1 7.6394400000e-01 7.2503494481e+00 1.7618499521e+01 4.7306421105e+01
1624 1 1 7.6394400000e-01 5.4853022376e+01 7.0000809309e+00 2.4220952232e+01
1625 1 1 7.6394400000e-01 4.5701472884e+01 2.9665377960e+01 5.4934241196e+01
1626 1 1 7.6394400000e-01 2.5114539131e+01 2.4576691877e+01 4.6854078473e+01
1627 1 1 7.6394400000e-01 3.6893707911e+01 3.8669397641e+01 2.1158756393e+01
1628 1 1 7.6394400000e-01 4.3993115019e+01 3.7081053948e+01 1.2368261901e+01
1629 1 1 7.6394400000e-01 5.9588395997e+01 6.0835887924e+01 2.6886991893e+01
1630 1 1 7.6394400000e-01 2.2605156904e+01 2.5561321107e+00 1.3703150545e+01
1631 1 1 7.6394400000e-01 1.9343934123e+01 2.6508751839e+01 5.0394799158e+01
1632 1 1 7.6394400000e-01 5.1991126682e+01 2.8394202538e+01 4.0525988254e+01
1633 1 1 7.6394400000e-01 3.7444074016e+01 5.5947547631e+01 5.6536554446e+00
1634 1 1 7.6394400000e-01 2.8848394218e+01 2.8772866462e+01 4.8162886721e+01
1635 1 1 7.6394400000e-01 5.4145748443e+00 6.5980352351e+00 2.2144510331e+01
1636 1 1 7.6394400000e-01 3.0061611290e+01 3.1381708332e+01 4.1989078807e+01
1637 1 1 7.6394400000e-01 2.0703811036e+01 4.2576115511e+00 2.7432098230e+01
1638 1 1 7.6394400000e-01 1.4982346507e+01 1.8381378160e+01 2.3405888567e+01
1639 1 1 7.6394400000e-01 3.1568199374e+01 6.0450664383e+01 5.2271044006e+01
1640 1 1 7.6394400000e-01 4.3937545629e+01 5.5393814818e+01 7.8348400515e-01
1641 1 1 7.6394400000e-01 4.3735511192e+01 1.4764578228e+01 1.4195959569e+01
1642 1 1 7.6394400000e-01 2.7082770677e+01 4.2464146015e+01 6.1078798893e+01
1643 1 1 7.6394400000e-01 6.2824052777e+01 1.4561815116e+01 3.8754752467e+01
1644 1 1 7.6394400000e-01 1.3321870234e+01 1.7807345354e+01 8.6605520241e+00
1645 1 1 7.6394400000e-01 6.0470680613e+01 1.5558345105e+01 2.0531953007e+01
1646 1 1 7.6394400000e-01 7.9241408034e+00 7.4562972061e+00 3.8214384681e+01
1647 1 1 7.6394400000e-01 1.8646801015e+01 1.6672150715e+00 4.2558826091e+01
1648 1 1 7.6394400000e-01 3.6923557021e+01 1.4102560996e+01 7.5854113379e+00
1649 1 1 7.6394400000e-01 7.0973214434e+00 2.2846041987e+01 5.3347195785e+01
1650 1 1 7.6394400000e-01 2.6563832514e+01 3.8335746847e+01 1.0005717239e+01
1651 1 1 7.6394400000e-01 1.1156422311e+01 4.2079693728e+01 2.8542881747e+01
1652 1 1 7.6394400000e-01 8.9518997583e+00 5.1874896362e+01 3.0877140754e+00
1653 1 1 7.6394400000e-01 5.2904793597e+01 2.3642732981e+01 3.6033089526e+01
1654 1 1 7.6394400000e-01 1.4818750510e+01 2.6385621941e+01 4.9268530662e+01
1655 1 1 7.6394400000e-01 1.9471027496e+01 8.8193832334e+00 4.2544727654e+01
1656 1 1 7.6394400000e-01 6.3880513452e+01 3.9571565925e+01 4.6531822156e+00
1657 1 1 7.6394400000e-01 9.8637048861e-01 4.9341589726e+01 5.6018369881e+01
1658 1 1 7.6394400000e-01 5.7212817126e+01 6.0045981135e+01 5.5093823879e+01
1659 1 1 7.6394400000e-01 4.7309506073e+01 3.5259255043e+01 3.1434981967e+01
1660 1 1 7.6394400000e-01 1.0525141102e+01 2.4947850964e+01 2.0868029587e+00
1661 1 1 7.6394400000e-01 4.9410658794e+01 5.1029350111e+01 4.3931055177e+00
1662 1 1 7.6394400000e-01 6.1545604487e+01 4.0598837463e+01 3.3693347970e+01
1663 1 1 7.6394400000e-01 1.6840606574e+00 5.8481266527e+01 3.2107576657e+00
1664 1 1 7.6394400000e-01 8.1375715801e+00 2.6300548845e+01 6.5971758439e+00
1665 1 1 7.6394400000e-01 6.3135345414e+01 3.3371497693e+01 1.9658734962e+01
1666 1 1 7.6394400000e-01 1.2164422261e+01 6.3185454843e+01 9.0584460308e+00
1667 1 1 7.6394400000e-01 4.2548640945e+00 5.3583465326e+01 3.3313598117e+01
1668 1 1 7.6394400000e-01 8.5757249269e+00 2.7016318520e+01 1.6114418876e+01
1669 1 1 7.6394400000e-01 1.1235572431e+01 4.3557388579e+01 3.1435028386e+00
1670 1 1 7.6394400000e-01 4.1611599256e+00 5.8529043515e+01 2.5347240199e+01
1671 1 1 7.6394400000e-01 2.5358734788e+01 3.5684130424e+01 2.2089642440e+01
1672 1 1 7.6394400000e-01 4.2257659798e+01 4.7518651198e+01 6.3521392655e+01
1673 1 1 7.6394400000e-01 3.3305955675e+01 9.3202687988e+00 5.1927517268e+01
1674 1 1 7.6394400000e-01 6.0154867260e+01 5.0800366353e+01 4.6687590555e+01
1675 1 1 7.6394400000e-01 3.5538745449e+01 5.6740618555e+01 3.0082279280e+00
1676 1 1 7.6394400000e-01 3.4402793036e+01 4.7849647181e+00 3.3675124097e+01
1677 1 1 7.6394400000e-01 5.8308269449e+01 2.2891184442e+01 8.7327964041e+00
1678 1 1 7.6394400000e-01 1.0102862611e+01 4.8604721463e+01 3.4304126947e+01
1679 1 1 7.6394400000e-01 2.9094373106e+01 9.7136546817e+00 5.6753946968e+01
1680 1 1 7.6394400000e-01 5.9319245726e+01 5.3831915561e+00 4.0719581445e+01
1681 1 1 7.6394400000e-01 1.9604558733e+01 6.2670154047e+01 6.8277630469e+00
1682 1 1 7.6394400000e-01 1.8610205856e+01 5.5313038819e+01 2.5626669802e+01
1683 1 1 7.6394400000e-01 1.5993473464e+01 5.6175361863e+01 5.7570604798e+01
1684 1 1 7.6394400000e-01 3.0925032775e+01 1.9215401351e+01 4.7395199546e+01
1685 1 1 7.6394400000e-01 7.7898329008e+00 2.3471894229e+01 6.3038923815e+00
1686 1 1 7.6394400000e-01 1.6190588254e+01 5.2084145430e+01 3.5273396943e+01
1687 1 1 7.6394400000e-01 4.2400127717e+01 2.0089963065e+00 1.2828790485e+01
1688 1 1 7.6394400000e-01 2.0306415186e+01 2.8262330665e+01 1.3249994539e+00
1689 1 1 7.6394400000e-01 4.8786484750e+00 1.0578082867e+01 1.2561281100e+01
1690 1 1 7.6394400000e-01 1.8946188197e+01 2.2149042313e+01 1.0001677714e+01
1691 1 1 7.6394400000e-01 4.9323797066e+01 3.5156073708e+01 4.1322894374e+00
1692 1 1 7.6394400000e-01 2.9323569475e+01 9.4991631117e+00 6.1143367817e+01
1693 1 1 7.6394400000e-01 4.7785439438e+01 1.9490950205e+01 1.2253587214e+00
1694 1 1 7.6394400000e-01 3.1648967079e+01 4.5826602321e+00 4.8004837090e+01
1695 1 1 7.6394400000e-01 5.2742486693e+01 2.4300718593e+00 1.3069132050e+01
1696 1 1 7.6394400000e-01 2.9052531712e+01 4.9379761949e+01 3.6642860368e+01
1697 1 1 7.6394400000e-01 5.4267032163e+01 7.5249926964e+00 4.6735678020e+01
1698 1 1 7.6394400000e-01 6.2026103844e+01 1.9290793456e+01 6.3697631170e+01
1699 1 1 7.6394400000e-01 1.7967907836e+01 2.2865034963e+01 2.8090580983e+01
1700 1 1 7.6394400000e-01 1.5116921253e+00 4.4925996713e+01 5.4365720895e+01
1701 1 1 7.6394400000e-01 4.5563185399e+01 7.4327440295e+00 6.2358963217e+01
1702 1 1 7.6394400000e-01 7.4436395686e+00 5.8593368285e+01 3.5688766122e+01
1703 1 1 7.6394400000e-01 5.4371052689e+01 8.0912009845e+00 1.0161607966e+01
1704 1 1 7.6394400000e-01 5.4023715138e+01 3.2216473052e+01 4.1433220216e+01
1705 1 1 7.6394400000e-01 5.9110321384e+01 6.2145803309e+01 1.7717914149e+01
1706 1 1 7.6394400000e-01 5.9168171441e+01 1.0439054699e+01 4.9918495719e+01
1707 1 1 7.6394400000e-01 5.3728525698e+01 5.2103370956e+01 2.3496345461e+01
1708 1 1 7.6394400000e-01 2.7220300397e+01 4.8092162513e+01 2.0209088444e+01
1709 1 1 7.6394400000e-01 5.0211895114e+01 3.1223240272e+01 4.8191628276e+01
1710 1 1 7.6394400000e-01 9.2417983266e+00 6.7129732202e-01 1.4328685653e+01
1711 1 1 7.6394400000e-01 3.1495542399e+01 5.1936917265e+01 5.9373215401e+00
1712 1 1 7.6394400000e-01 4.3568333888e+01 2.6818391691e+01 6.3619584251e+01
1713 1 1 7.6394400000e-01 4.2879844011e+01 2.9691180009e+01 2.3306406804e+01
1714 1 1 7.6394400000e-01 8.6168865040e+00 2.9792481140e+01 1.8487182286e+01
1715 1 1 7.6394400000e-01 5.8385771440e+01 7.6240261249e+00 3.7267750895e+01
1716 1 1 7.6394400000e-01 5.6229802061e+01 1.3545794730e+01 4.3814834795e+01
1717 1 1 7.6394400000e-01 2.6967791219e+01 5.8625071020e+01 6.2507293615e+01
1718 1 1 7.6394400000e-01 5.5451847039e+00 3.5648037612e+01 4.2619855235e+01
1719 1 1 7.6394400000e-01 2.3654531271e+01 4.4431084645e+01 5.4361803324e+01
1720 1 1 7.6394400000e-01 2.4042420358e+00 1.3779131911e+01 4.9914190288e+01
1721 1 1 7.6394400000e-01 6.1892176645e+01 5.1046162285e+01 3.8782840515e+00
1722 1 1 7.6394400000e-01 2.7542521775e+01 2.1642983984e+01 1.4442554406e+01
1723 1 1 7.6394400000e-01 1.0970896470e+01 3.6826220012e+01 3.8418141440e+01
1724 1 1 7.6394400000e-01 5.4243572925e+01 1.6978943281e+01 5.3786308513e+01
1725 1 1 7.6394400000e-01 6.2454401666e+01 4.5811302328e+00 5.5743094494e+01
1726 1 1 7.6394400000e-01 1.0793265240e+01 5.8179219578e+00 1.1786215558e+01
1727 1 1 7.6394400000e-01 4.9800796876e+01 5.4818851175e+01 3.4417227567e+01
1728 1 1 7.6394400000e-01 2.4791614491e+01 3.3680056348e+01 6.3572938559e+01
1729 1 1 7.6394400000e-01 3.5135239864e+01 5.9704854447e+01 3.0542793519e+01
1730 1 1 7.6394400000e-01 3.5502113561e+00 2.4226269891e+01 2.2534285299e+01
1731 1 1 7.6394400000e-01 2.3059602707e+01 6.3132729805e+01 6.2433536026e+01
1732 1 1 7.6394400000e-01 2.9844672809e+01 4.9121836013e-02 3.1021827951e+01
1733 1 1 7.6394400000e-01 4.4131298168e+01 4.0328693303e+00 3.1723298556e+01
1734 1 1 7.6394400000e-01 4.4892069141e+01 6.3174203002e+01 3.7310690154e+01
1735 1 1 7.6394400000e-01 2.6411013747e+01 1.9161765293e+01 1.3849813605e+01
1736 1 1 7.6394400000e-01 3.6829104466e+00 1.0381248341e+01 4.0776494934e+01
1737 1 1 7.6394400000e-01 3.5798023751e+01 2.0673188167e+01 1.1111286078e+01
1738 1 1 7.6394400000e-01 1.2465714200e+01 2.4573688206e+01 4.5606526051e+01
1739 1 1 7.6394400000e-01 5.2177179541e+01 4.4318343028e+00 6.1244294809e+01
1740 1 1 7.6394400000e-01 2.5586793138e+01 1.8645038510e+01 4.9108144378e+01
1741 1 1 7.6394400000e-01 3.3643378967e+01 4.5602270329e+01 3.3827918013e+00
1742 1 1 7.6394400000e-01 5.0178475781e+00 1.0631295533e+01 6.0908261060e+01
1743 1 1 7.6394400000e-01 3.0687294989e+00 3.0859727787e+00 2.4820120067e+01
1744 1 1 7.6394400000e-01 5.8678935493e+00 5.0407561416e+01 2.6452302596e+01
1745 1 1 7.6394400000e-01 1.4212244070e+01 3.2082665715e+01 4.9679550427e+01
1746 1 1 7.6394400000e-01 6.0743002521e+01 1.8735178091e+01 4.3599254525e+00
1747 1 1 7.6394400000e-01 1.9085956057e+01 1.5650695313e+01 3.0067668664e+01
1748 1 1 7.6394400000e-01 3.5860926113e+01 3.2924938009e+01 1.6435207300e+01
1749 1 1 7.6394400000e-01 1.3873402660e+01 2.1613702123e+01 8.9979884201e+00
1750 1 1 7.6394400000e-01 4.7796109742e+01 6.9740011211e+00 5.8455583872e+01
1751 1 1 7.6394400000e-01 9.9632945136e+00 3.2464581050e+01 6.2927794888e+01
1752 1 1 7.6394400000e-01 2.2946641879e+01 2.8233061071e+01 4.6849933490e+00
1753 1 1 7.6394400000e-01 5.1078085217e+01 6.1480490629e+00 3.7948742954e+01
1754 1 1 7.6394400000e-01 1.4374513643e+01 3.1361038761e+01 3.4775473676e+01
1755 1 1 7.6394400000e-01 2.3055632414e+01 2.1241378153e+01 3.1703055893e+01
1756 1 1 7.6394400000e-01 5.6972631944e+01 1.8160069766e+01 3.1060196230e+01
1757 1 1 7.6394400000e-01 1.5990308575e+01 3.5923014005e+01 5.4508628090e+01
1758 1 1 7.6394400000e-01 2.9371028303e+01 1.1536346947e+00 6.9760202214e-01
1759 1 1 7.6394400000e-01 2.3323763225e+01 3.2824750963e+01 4.6461070987e+01
1760 1 1 7.6394400000e-01 3.1916984732e-01 3.8608979867e+01 5.1071450803e+01
1761 1 1 7.6394400000e-01 2.6706716224e+01 5.4270715645e+01 4.2201738646e+00
1762 1 1 7.6394400000e-01 4.9120065256e+01 5.4756586508e+01 5.2018373401e+01
1763 1 1 7.6394400000e-01 6.3879037616e+01 4.2843437620e+01 4.3399716032e+01
1764 1 1 7.6394400000e-01 6.1650687191e+01 6.0973086845e+01 3.4058757793e+01
1765 1 1 7.6394400000e-01 3.9527663679e+01 3.1256239560e+01 4.9815343141e+01
1766 1 1 7.6394400000e-01 1.7927459520e+01 1.3483231616e+01 3.9194433863e+01
1767 1 1 7.6394400000e-01 4.4289795952e+00 2.3882890876e+01 3.4217610120e+01
1768 1 1 7.6394400000e-01 4.8656416870e+01 3.9675272219e+01 3.1849441777e+01
1769 1 1 7.6394400000e-01 3.4290328793e+01 8.5378510530e+00 1.9783160734e+01
1770 1 1 7.6394400000e-01 4.1899484833e+01 3.9063177302e+01 3.4421219322e+01
1771 1 1 7.6394400000e-01 5.6589376316e+01 5.2129673494e+01 5.7895200521e+01
1772 1 1 7.6394400000e-01 3.4670103903e+01 4.3443307256e+01 5.1117122664e+00
1773 1 1 7.6394400000e-01 2.2711741407e+00 1.6948891355e+01 4.5918948049e+01
1774 1 1 7.6394400000e-01 5.5327188807e+01 1.7592708933e+00 5.8677541249e+01
1775 1 1 7.6394400000e-01 4.5619242579e+01 3.7806496455e+01 2.3073247823e+01
1776 1 1 7.6394400000e-01 6.9917034935e+00 1.9406906272e+01 2.4828144339e+01
1777 1 1 7.6394400000e-01 2.7491646638e+00 6.9866903461e+00 1.3787091991e+01
1778 1 1 7.6394400000e-01 2.7440376503e+01 1.9177720850e+01 2.3927364450e+01
1779 1 1 7.6394400000e-01 4.3008141561e+01 7.9788328155e+00 4.3000431849e+00
1780 1 1 7.6394400000e-01 5.9559342709e+01 5.0611540927e+01 3.4284946484e+01
1781 1 1 7.6394400000e-01 3.3510973430e+01 6.1263991958e+01 2.7836593978e+01
1782 1 1 7.6394400000e-01 2.3254089151e+00 2.2479683169e+01 3.1631803368e+01
1783 1 1 7.6394400000e-01 5.0319220085e+01 3.2303902330e+01 1.2797321805e+01
1784 1 1 7.6394400000e-01 1.1278074413e+01 4.6218019396e+01 3.6183610431e+01
1785 1 1 7.6394400000e-01 1.0417109404e+01 2.2915352213e-01 4.2033158247e+01
1786 1 1 7.6394400000e-01 4.3793569309e+00 7.1853326644e+00 2.6795671884e+01
1787 1 1 7.6394400000e-01 1.7535974708e+01 5.4599878790e+01 4.0335809671e+00
1788 1 1 7.6394400000e-01 2.4160537502e+01 9.8356602872e+00 4.0768335597e+01
1789 1 1 7.6394400000e-01 2.0049656080e+01 2.0395630672e+01 5.3655491906e+01
1790 1 1 7.6394400000e-01 4.6069310586e+01 1.4200545852e+00 1.4851367053e+01
1791 1 1 7.6394400000e-01 8.2629228095e-02 3.8065587646e+01 3.6020364274e+01
1792 1 1 7.6394400000e-01 1.3339068974e+01 6.1630369840e+01 7.7180999645e+00
1793 1 1 7.6394400000e-01 2.2880759847e+01 2.2441560313e+01 4.1812695715e+01
1794 1 1 7.6394400000e-01 1.2919093323e+01 4.9011971551e+01 6.0623700251e+01
1795 1 1 7.6394400000e-01 2.6162847323e+01 3.4726030456e+01 3.6103823344e+01
1796 1 1 7.6394400000e-01 5.1397074703e+01 3.9824550457e+01 5.4681999675e+01
1797 1 1 7.6394400000e-01 5.7714758967e+00 4.1603813555e+01 5.9123355112e+00
1798 1 1 7.6394400000e-01 3.0401623813e+01 9.8916514676e+00 1.6716265104e+01
1799 1 1 7.6394400000e-01 3.0742197131e+01 3.5421571683e+01 3.4483977310e+01
1800 1 1 7.6394400000e-01 2.4050088755e+01 1.6013461053e+01 2.0278488653e+01
1801 1 1 7.6394400000e-01 2.1301558892e+01 3.9696174533e+01 5.5040803479e+01
1802 1 1 7.6394400000e-01 4.0876410078e+01 2.5603925857e+01 5.4885864401e+01
1803 1 1 7.6394400000e-01 8.1829247293e+00 3.0799222065e+01 4.8367243168e+00
1804 1 1 7.6394400000e-01 3.1118406854e+01 3.4554631294e+01 4.2682007852e+01
1805 1 1 7.6394400000e-01 4.0669707640e+00 5.5035924812e+01 3.6367852520e+01
1806 1 1 7.6394400000e-01 1.1218398219e+01 1.7954417927e+01 4.0260986989e+01
1807 1 1 7.6394400000e-01 2.3573224492e+01 1.0687682113e+01 2.8639885805e+01
1808 1 1 7.6394400000e-01 5.9669293771e+01 2.4815005994e+01 1.2068051398e+01
1809 1 1 7.6394400000e-01 5.2732683445e+01 3.7502537365e+01 5.5607731659e+01
1810 1 1 7.6394400000e-01 3.2261639334e+01 3.0912961420e+01 1.1786656985e+01
1811 1 1 7.6394400000e-01 1.7304660754e+01 1.5905771184e+01 3.4128105260e+00
1812 1 1 7.6394400000e-01 5.8465797027e+01 2.1252859695e+01 4.6114214864e+01
1813 1 1 7.6394400000e-01 2.2775819216e+01 5.7649770434e+01 3.2482619613e+00
1814 1 1 7.6394400000e-01 4.9307359084e+01 3.1255773459e+01 2.2908826019e+01
1815 1 1 7.6394400000e-01 4.6411005539e+01 4.1219562954e+01 5.4635109991e+00
1816 1 1 7.6394400000e-01 5.9549530933e+00 2.6177766131e+01 2.3997745132e+01
1817 1 1 7.6394400000e-01 4.7437305533e+01 1.6854395912e+01 1.3742067923e+01
1818 1 1 7.6394400000e-01 4.5572387615e+01 7.3897030316e+00 1.8518129570e+01
1819 1 1 7.6394400000e-01 1.3866185696e+00 2.0715597441e+01 3.4236186192e+01
1820 1 1 7.6394400000e-01 2.4714501556e+01 5.2898666197e+01 1.3053068381e+01
1821 1 1 7.6394400000e-01 4.6377971552e+01 1.1195930641e+01 3.5796611645e+01
1822 1 1 7.6394400000e-01 4.6264591216e+01 9.7922017680e+00 1.3185715750e+00
1823 1 1 7.6394400000e-01 4.2310023933e+01 5.8843504555e+01 1.4912234374e+01
1824 1 1 7.6394400000e-01 7.4103331751e+00 5.2156465328e+01 5.1767339406e+01
1825 1 1 7.6394400000e-01 6.7202651592e+00 2.5450023232e+01 7.3387566505e+00
1826 1 1 7.6394400000e-01 2.4036892360e+01 4.6530206875e+01 1.6565519960e+01
1827 1 1 7.6394400000e-01 1.8067968320e+01 3.8776526345e+01 3.7953887078e+01
1828 1 1 7.6394400000e-01 3.1008755445e+01 8.4641635180e+00 3.6172858690e+01
1829 1 1 7.6394400000e-01 3.1772063363e+01 4.1522902343e+01 1.9420622225e+01
1830 1 1 7.6394400000e-01 1.7728886939e+01 1.7697045712e+01 3.4139537559e+01
1831 1 1 7.6394400000e-01 7.5817611674e+00 2.1027699038e+01 4.7918415306e+01
1832 1 1 7.6394400000e-01 5.6116295233e+01 2.8127132595e+01 3.2391970072e+01
1833 1 1 7.6394400000e-01 5.4790646947e+01 5.5389645684e+01 1.6567265624e+01
1834 1 1 7.6394400000e-01 4.7248657818e+01 2.7418692324e+01 6.3345556136e+01
1835 1 1 7.6394400000e-01 1.9930838170e+01 4.3125116721e+01 2.1867964919e+01
1836 1 1 7.6394400000e-01 1.1660635489e+01 2.4061587266e+01 5.6703211526e+01
1837 1 1 7.6394400000e-01 3.2173910589e+01 1.6172837935e+01 4.5373436410e+01
1838 1 1 7.6394400000e-01 3.1077452319e+01 5.7757995152e+01 3.8896210602e+00
1839 1 1 7.6394400000e-01 5.4547270810e+01 2.2792572351e+01 3.8090869605e+00
1840 1 1 7.6394400000e-01 3.3146072655e+01 8.4402742938e+00 9.7220997164e+00
1841 1 1 7.6394400000e-01 5.7500296731e+01 6.5062581051e+00 1.7582270536e+01
1842 1 1 7.6394400000e-01 3.6870970787e+00 2.7358570428e+01 4.3205727639e+01
1843 1 1 7.6394400000e-01 6.2822010243e+01 5.3954075808e+01 6.0958245426e+01
1844 1 1 7.6394400000e-01 3.4570718275e+01 4.8147659079e+01 8.4339895654e+00
1845 1 1 7.6394400000e-01 1.7128219771e+01 3.5686408162e+01 1.0120292024e+01
1846 1 1 7.6394400000e-01 5.8457188572e+01 1.9822251593e+01 3.8821278323e+01
1847 1 1 7.6394400000e-01 5.6287370057e+01 2.0992857973e+01 6.1770877682e+01
1848 1 1 7.6394400000e-01 3.6109413829e+01 5.8762630067e+00 5.8436917524e+01
1849 1 1 7.6394400000e-01 2.7372071397e+01 5.6248821727e+00 3.8862350677e+01
1850 1 1 7.6394400000e-01 4.7207144114e+01 2.3059640530e+01 5.1074426125e+01
1851 1 1 7.6394400000e-01 5.0601170331e+01 4.5584895850e+01 6.1234732980e+01
1852 1 1 7.6394400000e-01 4.4466014475e+01 4.5620049991e+01 5.9439694719e+01
1853 1 1 7.6394400000e-01 4.0492811773e+01 2.1732008207e+01 2.2947134954e+01
1854 1 1 7.6394400000e-01 5.3812995810e+01 2.4548436064e+01 1.7484239707e+01
1855 1 1 7.6394400000e-01 7.6943504941e+00 3.4295819290e+01 1.4061663449e+01
1856 1 1 7.6394400000e-01 5.0780005145e+00 4.9013733925e+01 1.1424746444e+01
1857 1 1 7.6394400000e-01 2.6201196879e+01 5.0471613566e+01 7.8707932669e+00
1858 1 1 7.6394400000e-01 6.3249243996e+01 3.4348160152e+01 3.6193748596e+01
1859 1 1 7.6394400000e-01 1.7445679868e+01 9.3424133752e+00 5.6220160161e+01
1860 1 1 7.6394400000e-01 2.3721449161e+01 1.0108291870e+01 3.4979638944e+00
1861 1 1 7.6394400000e-01 4.8651121752e+01 2.1757182777e+01 2.4508226913e+01
1862 1 1 7.6394400000e-01 2.4579490171e+01 3.4279328272e+00 1.1701261080e+00
1863 1 1 7.6394400000e-01 2.5877100683e+00 3.8402272958e+01 1.7661511974e+01
1864 1 1 7.6394400000e-01 4.5269463480e+01 4.9007978227e+01 1.4406478722e+01
1865 1 1 7.6394400000e-01 7.7063602183e+00 3.2676904587e+01 2.6714341949e+01
1866 1 1 7.6394400000e-01 6.1225215173e+01 1.7252726334e+01 1.8256415960e+01
1867 1 1 7.6394400000e-01 3.8830707122e+01 4.1832935985e+01 6.2139995308e+01
1868 1 1 7.6394400000e-01 5.2131248419e+01 4.5251333616e+01 2.3327542896e+01
1869 1 1 7.6394400000e-01 3.8721800874e+01 1.2119603181e+01 1.4597392062e+01
1870 1 1 7.6394400000e-01 6.0100259576e+01 2.4193483499e+01 5.2109818791e+01
1871 1 1 7.6394400000e-01 3.4139912261e+00 5.5634720129e+01 2.4291573544e+01
1872 1 1 7.6394400000e-01 2.8397357851e+01 5.7807706279e+01 2.7653120481e+01
1873 1 1 7.6394400000e-01 6.0172484161e+01 4.8389219567e+01 6.0218462677e+01
1874 1 1 7.6394400000e-01 3.3996214292e+01 2.0530376434e+01 2.2893227418e+01
1875 1 1 7.6394400000e-01 4.0169652305e+01 5.4900061743e+01 2.9678528757e+00
1876 1 1 7.6394400000e-01 4.3948379421e+01 5.2253978724e+01 1.9640312672e+01
1877 1 1 7.6394400000e-01 1.4593569682e+01 2.5666910900e+01 3.7438490220e+01
1878 1 1 7.6394400000e-01 2.5291840195e+01 1.8107114127e+01 1.6416923070e+01
1879 1 1 7.6394400000e-01 1.2412047714e+01 1.7866472904e+00 2.3256438590e+01
1880 1 1 7.6394400000e-01 4.2470425596e+01 1.6961039097e+01 5.7661571761e+01
1881 1 1 7.6394400000e-01 5.4735759414e+01 1.6765147066e+01 6.0052168691e+01
1882 1 1 7.6394400000e-01 3.1898619628e+00 4.9605737197e+01 5.3616610654e+01
1883 1 1 7.6394400000e-01 2.4531838843e+01 2.2027703174e+01 3.7513524421e+01
1884 1 1 7.6394400000e-01 3.9661271840e+01 4.8654038747e+00 4.7823521574e+01
1885 1 1 7.6394400000e-01 5.6075993623e+01 1.3826266500e+01 5.9506863579e+01
1886 1 1 7.6394400000e-01 3.0002415459e+01 6.8709339997e+00 5.0775270807e+01
1887 1 1 7.6394400000e-01 5.8999675381e+01 3.8496826571e+01 1.3420470758e+01
1888 1 1 7.6394400000e-01 5.0337592227e+01 5.1345559407e+01 1.6516817122e+01
1889 1 1 7.6394400000e-01 5.2667740630e+01 5.6803884701e+01 4.5164002103e+01
1890 1 1 7.6394400000e-01 5.9796956199e+01 1.9766608418e+01 3.5290129758e+01
1891 1 1 7.6394400000e-01 3.0424260603e+00 7.4607301631e+00 1.9607558087e+00
1892 1 1 7.6394400000e-01 4.3434111102e+01 2.9983006430e+01 4.2962923976e+01
1893 1 1 7.6394400000e-01 5.6990116784e+01 5.4495248444e+01 5.4447745465e+01
1894 1 1 7.6394400000e-01 4.4738803820e+01 6.1454881473e+01 1.7751589959e+01
1895 1 1 7.6394400000e-01 4.7766872582e+01 5.5076556727e+01 5.5754415529e+01
1896 1 1 7.6394400000e-01 1.6728887054e+01 3.9935890387e+00 4.7908880891e+01
1897 1 1 7.6394400000e-01 3.9173953646e+01 3.7362869951e+01 6.1403844252e+01
1898 1 1 7.6394400000e-01 2.5142922603e+01 6.0567398753e+00 6.0931255347e-01
1899 1 1 7.6394400000e-01 1.8716275881e+01 2.9214135044e+01 2.7878473626e+00
1900 1 1 7.6394400000e-01 1.1988083587e+01 5.6449747338e+01 4.3823265575e+01
1901 1 1 7.6394400000e-01 1.8637849985e+01 5.0550959703e+01 4.5060846438e+01
1902 1 1 7.6394400000e-01 2.3652929981e+01 4.7584799080e+01 2.0314864727e+01
1903 1 1 7.6394400000e-01 3.3037173175e+01 2.4088574586e+01 3.3143745624e+01
1904 1 1 7.6394400000e-01 3.8493292219e+01 2.7527175598e+01 6.3078901502e+01
1905 1 1 7.6394400000e-01 4.3077131927e+01 1.0224762888e+01 2.9715513669e+01
1906 1 1 7.6394400000e-01 4.4396199290e+01 5.2018036759e+01 1.7152005912e+01
1907 1 1 7.6394400000e-01 6.1166527034e+01 1.4545499434e+01 5.3779443304e+01
1908 1 1 7.6394400000e-01 1.7475176720e+01 2.7230467209e+01 1.1369491050e+01
1909 1 1 7.6394400000e-01 1.4393939511e+01 2.9200200621e+01 2.5687550576e+01
1910 1 1 7.6394400000e-01 4.7526076274e+01 6.3699618593e+01 6.2315883757e+01
1911 1 1 7.6394400000e-01 4.5519419466e+01 5.9586547542e+01 4.0359011953e+01
1912 1 1 7.6394400000e-01 5.1411872521e+01 2.6295224248e+01 5.9077748033e+01
1913 1 1 7.6394400000e-01 5.6137296108e+01 1.3467694959e+01 5.0238739420e+01
1914 1 1 7.6394400000e-01 4.0999310284e+01 6.0541110419e+01 2.6463496742e+00
1915 1 1 7.6394400000e-01 1.9938132235e+01 1.3696430209e+01 1.3973923534e+01
1916 1 1 7.6394400000e-01 5.0871717484e+01 6.2731505432e+01 2.6300154848e+01
1917 1 1 7.6394400000e-01 6.9933647970e+00 6.1314276046e+00 5.2972598670e+01
1918 1 1 7.6394400000e-01 6.3112580689e+01 1.5056814123e+01 5.3788338279e+01
1919 1 1 7.6394400000e-01 2.7267348689e+01 3.5054087858e+01 2.5287314555e+01
1920 1 1 7.6394400000e-01 4.2667509909e+00 3.3286283782e+01 4.5992543124e+01
1921 1 1 7.6394400000e-01 1.3264618938e+00 2.4722475693e+01 3.0680385913e+01
1922 1 1 7.6394400000e-01 5.3779792998e+01 5.7477737255e+01 3.0696464047e+01
1923 1 1 7.6394400000e-01 5.8809535022e+00 3.4588923041e+01 4.1327423761e+01
1924 1 1 7.6394400000e-01 3.9619664398e+01 7.4304739566e+00 4.5458582045e+01
1925 1 1 7.6394400000e-01 6.9991769402e+00 3.1811368168e+01 6.3030422871e+01
1926 1 1 7.6394400000e-01 6.2552840705e+01 5.8303025347e+01 2.0139510485e+01
1927 1 1 7.6394400000e-01 6.2624443486e+01 5.0429816734e+01 1.8039519292e+00
1928 1 1 7.6394400000e-01 3.1640816135e+01 2.4205060977e+01 5.1370010826e+01
1929 1 1 7.6394400000e-01 5.8681875678e+00 3.2489464372e+01 1.1896696163e+01
1930 1 1 7.6394400000e-01 2.5684424392e+01 4.0724115643e+01 2.2056668684e+01
1931 1 1 7.6394400000e-01 3.1519611054e+01 4.6348889452e+01 3.2809633016e+00
1932 1 1 7.6394400000e-01 3.5965787269e+01 2.2310534924e+01 2.2844998884e+01
1933 1 1 7.6394400000e-01 1.8961776724e+01 5.9977745224e+01 2.0514097826e+01
1934 1 1 7.6394400000e-01 5.1947853858e+01 1.1701245149e+01 2.3906864155e+01
1935 1 1 7.6394400000e-01 5.8795020903e+01 3.7052734466e+01 5.7294379714e+01
1936 1 1 7.6394400000e-01 6.3560544639e+01 4.0361707763e+01 3.8822020425e+01
1937 1 1 7.6394400000e-01 5.6457974263e+01 2.2254663288e+01 5.9944854018e+01
1938 1 1 7.6394400000e-01 5.3576904418e+01 8.3655265623e+00 2.0625721487e+01
1939 1 1 7.6394400000e-01 6.2041830678e+00 1.4161257688e+01 1.8859808343e+00
1940 1 1 7.6394400000e-01 5.2754785128e+01 2.0409919088e+01 4.7998497731e+01
1941 1 1 7.6394400000e-01 2.0539738944e+01 5.6604430478e+01 4.2514490663e+01
1942 1 1 7.6394400000e-01 5.0793176589e+01 3.6883919532e+01 1.7125109081e+01
1943 1 1 7.6394400000e-01 2.3859160742e+01 5.3565445773e+01 8.3125266058e+00
1944 1 1 7.6394400000e-01 3.7418688926e+01 6.0615468771e+01 4.5206749371e+01
1945 1 1 7.6394400000e-01 7.0430952254e-01 5.4235561768e+01 5.8909032660e+01
1946 1 1 7.6394400000e-01 2.8768170271e+01 2.6938924737e+00 2.0945696535e+01
1947 1 1 7.6394400000e-01 4.5138100544e+01 5.7789946610e+01 2.8123960670e+01
1948 1 1 7.6394400000e-01 1.7662469485e+01 1.4211892466e+00 2.1313721173e+01
1949 1 1 7.6394400000e-01 8.8340543619e+00 1.4312210602e+01 3.7473078219e+01
1950 1 1 7.6394400000e-01 2.3872523272e+01 1.7286830327e+01 4.9125973110e+00
1951 1 1 7.6394400000e-01 1.2013228709e+01 2.8745338293e+01 3.4712611942e+01
1952 1 1 7.6394400000e-01 6.1046658079e+01 3.6532437388e+01 3.9529038482e+01
1953 1 1 7.6394400000e-01 4.3063789198e+01 5.5552054685e+01 5.7867484747e+01
1954 1 1 7.6394400000e-01 3.8811433315e+01 6.2325526007e+01 4.0687903714e+01
1955 1 1 7.6394400000e-01 5.1920163536e+01 2.1231124849e+01 5.9051364987e+01
1956 1 1 7.6394400000e-01 8.8618131662e+00 1.9538104058e+01 5.0670052842e+00
1957 1 1 7.6394400000e-01 3.2251901493e+01 1.0841067639e+01 4.2544173730e+01
1958 1 1 7.6394400000e-01 5.9355623982e+01 5.4126941340e+01 3.0330814455e+01
1959 1 1 7.6394400000e-01 3.9789136634e+01 3.8756876892e+01 4.4669252985e+01
1960 1 1 7.6394400000e-01 1.7029974937e+01 2.0381767672e+01 5.8337046868e+01
1961 1 1 7.6394400000e-01 2.2998990090e+01 4.0626099743e+01 4.2254836646e+01
1962 1 1 7.6394400000e-01 2.5437776916e+00 5.1788357888e+01 4.3885728860e+01
1963 1 1 7.6394400000e-01 3.4671079187e+01 6.3319200935e+01 1.4297334718e+01
1964 1 1 7.6394400000e-01 4.5659571585e+00 2.3361125526e+01 6.2434072902e+01
1965 1 1 7.6394400000e-01 7.8608818443e+00 2.1177494424e+01 4.6526442033e+01
1966 1 1 7.6394400000e-01 5.2437147179e+01 1.3810230116e+01 3.9943493982e+01
1967 1 1 7.6394400000e-01 4.6778278042e+01 3.4194590348e+01 4.4480167627e+01
1968 1 1 7.6394400000e-01 3.0024938417e+01 2.5369535403e+01 2.8751564522e+01
1969 1 1 7.6394400000e-01 5.6120059225e+01 9.0433983736e+00 1.8905056936e+01
1970 1 1 7.6394400000e-01 2.7053382939e+01 3.9665100091e+00 8.3899959615e+00
1971 1 1 7.6394400000e-01 4.7955134018e+01 3.1532398801e+01 2.4943250081e+01
1972 1 1 7.6394400000e-01 5.0438777281e+01 7.9404011006e+00 6.3442830674e+01
1973 1 1 7.6394400000e-01 3.2526651648e+01 1.9896884819e+01 1.1291358707e+01
1974 1 1 7.6394400000e-01 1.4959563469e+01 1.9685239139e+01 2.9845685369e+01
1975 1 1 7.6394400000e-01 2.0543295552e+01 1.3160455896e+01 4.3404874755e+01
1976 1 1 7.6394400000e-01 1.8508623533e+01 5.1004308132e+01 6.8295209520e+00
1977 1 1 7.6394400000e-01 4.8893085650e+00 2.1603924908e+01 5.4682701074e+01
1978 1 1 7.6394400000e-01 4.0461620149e+01 3.3032590416e+01 6.9737668365e+00
1979 1 1 7.6394400000e-01 4.7221998451e+01 4.0106648021e+00 2.4303292935e+01
1980 1 1 7.6394400000e-01 4.8234858924e+01 1.2278384863e+01 1.2377809689e+00
1981 1 1 7.6394400000e-01 6.0212361348e+01 4.5551420975e+01 4.4069106226e+01
1982 1 1 7.6394400000e-01 6.1071917325e+01 5.9631722347e+01 3.0705240027e+01
1983 1 1 7.6394400000e-01 2.1949356272e+01 5.8895665403e+01 5.9312437382e+01
1984 1 1 7.6394400000e-01 2.4423621848e+01 1.3096690976e+01 3.2119291130e+01
1985 1 1 7.6394400000e-01 7.6827430051e+00 1.2682490578e+01 5.0492202229e+01
1986 1 1 7.6394400000e-01 5.9176827627e+01 4.5099274893e+01 7.2653870854e+00
1987 1 1 7.6394400000e-01 3.9303081204e+01 4.1960936692e+00 3.0223801332e+00
1988 1 1 7.6394400000e-01 4.3690672378e+01 3.1228408121e+01 4.8006526590e+01
1989 1 1 7.6394400000e-01 1.9558370790e+01 5.4946956845e+01 4.3635530657e+01
1990 1 1 7.6394400000e-01 3.1684557156e+01 5.2969985296e+01 1.8449199550e+01
1991 1 1 7.6394400000e-01 6.0736072033e+01 2.1967719069e+01 2.5483691048e+01
1992 1 1 7.6394400000e-01 5.3109921550e+01 5.3063003721e+01 8.7462301227e+00
1993 1 1 7.6394400000e-01 3.1464839831e+01 4.5623886393e+01 3.2023225470e+01
1994 1 1 7.6394400000e-01 2.2119531310e+01 3.8443901637e+01 6.2183024560e+01
1995 1 1 7.6394400000e-01 3.8877174864e+01 2.0922892764e+01 6.2758292759e+01
1996 1 1 7.6394400000e-01 3.6827592466e+01 8.6439723919e+00 1.8804364957e+01
1997 1 1 7.6394400000e-01 5.8416660233e+01 1.8435607568e+01 5.6617600396e+01
1998 1 1 7.6394400000e-01 3.0223133119e+01 1.6690011821e+01 3.3300078802e+01
1999 1 1 7.6394400000e-01 8.1571166689e+00 1.1923709618e+01 3.6329754106e+01
2000 1 1 7.6394400000e-01 5.7055000689e+01 3.8120040893e+01 4.2569859116e+01
2001 1 1 7.6394400000e-01 5.3288561642e+01 8.2105292391e+00 2.2623808608e+01
2002 1 1 7.6394400000e-01 2.6915719536e+01 6.1194267482e+01 5.5145094397e+01
2003 1 1 7.6394400000e-01 2.5139835521e-01 3.2595229170e+01 2.9577985251e+01

Ellipsoids

1 1.0000000000e+00 1.0000000000e+00 2.0000000000e+00 3.9998893110e-01 4.7121514076e-01 -7.8610759194e-01 0.0000000000e+00
2 1.0000000000e+00 1.0000000000e+00 2.0000000000e+00 6.8109042007e-01 4.6189270248e-01 5.6812936123e-01 -0.0000000000e+00
3 1.0000000000e+00 1.0000000000e+00 2.0000000000e+00 3.3059984942e-01 -7.7873708437e-01 -5.3317191692e-01 0.0000000000e+00
4 1.0000000000e+00 1.0000000000e+00 2.0000000000e+00 9.9717881632e-01 3.5230491228e-02 6.6281375733e-02 -0.0000000000e+00
5 1.0000000000e+00 1.0000000000e+00 2.0000000000e+00 9.5862730708e-01 -2.2646612828e-01 1.7247254521e-01 0.0000000000e+00
6 1.0000000000e+00 1.0000000000e+00 2.0000000000e+00 7.5694086926e-01 -4.6675610532e-01 4.5736119051e-01 0.0000000000e+00
7 1.0000000000e+00 1.0000000000e+00 2.0000000000e+00 7.3372241987e-01 9.7490857703e-02 6.7241872613e-01 -0.0000000000e+00
8 1.0000000000e+00 1.0000000000e+00 2.0000000000e+00 5.4027884009e-01 7.7538208027e-01 3.2692721596e-01 -0.0000000000e+00
9 1.0000000000e+00 1.0000000000e+00 2.0000000000e+00 8.3115261330e-01 -4.9362565167e-01 2.5596689126e-01 0.0000000000e+00
10 1.0000000000e+00 1.0000000000e+00 2.0000000000e+00 6.0109578251e-01 3.0567560083e-01 -7.3840794098e-01 0.0000000000e+00
11 1.0000000000e+00 1.0000000000e+00 2.0000000000e+00 8.1418300494e-01 -5.6839072286e-01 -1.1848215322e-01 0.0000000000e+00
12 1.0000000000e+00 1.0000000000e+00 2.0000000000e+00 6.5165580511e-01 6.7745198726e-01 3.4117959585e-01 -0.0000000000e+00
13 1.0000000000e+00 1.0000000000e+00 2.0000000000e+00 8.8254678907e-01 -2.2186525487e-01 4.1459253946e-01 0.0000000000e+00
14 1.0000000000e+00 1.0000000000e+00 2.0000000000e+00 5.4632207964e-01 7.4779809169e-01 -3.7726674828e-01 0.0000000000e+00
15 1.0000000000e+00 1.0000000000e+00 2.0000000000e+00 3.4311918962e-01 -2.2793640963e-01 9.1121578942e-01 0.0000000000e+00
16 1.0000000000e+00 1.0000000000e+00 2.0000000000e+00 7.9169756362e-01 3.8593033676e-01 4.7357443230e-01 -0.0000000000e+00
17 1.0000000000e+00 1.0000000000e+00 2.0000000000e+00 6.6386548088e-01 6.0326615896e-01 4.4198706401e-01 -0.0000000000e+00
18 1.0000000000e+00 1.0000000000e+00 2.0000000000e+00 9.1724150807e-01 -1.9875619118e-01 3.4520137939e-01 0.0000000000e+00
19 1.0000000000e+00 1.0000000000e+00 2.0000000000e+00 6.0559658160e-01 1.7092121877e-02 -7.9558823503e-01 0.0000000000e+00
20 1.0000000000e+00 1.0000000000e+00 2.0000000000e+00 8.9326283969e-01 3.8511581279e-01 2.3187779104e-01 -0.0000000000e+00
21 1.0000000000e+00 1.0000000000e+00 2.0000000000e+00 6.6799251343e-01 -6.1902010737e-01 4.1303766013e-01 0.0000000000e+00
22 1.0000000000e+00 1.0000000000e+00 2.0000000000e+00 4.0777966544e-01 -4.7982914700e-01 7.7683958070e-01 0.0000000000e+00
23 1.0000000000e+00 1.0000000000e+00 2.0000000000e+00 9.1685198402e-02 -1.7580500125e-01 -9.8014612478e-01 0.0000000000e+00
24 1.0000000000e+00 1.0000000000e+00 2.0000000000e+00 6.7380107453e-01 -6.4603094696e-01 -3.5865878984e-01 0.0000000000e+00
25 1.0000000000e+00 1.0000000000e+00 2.0000000000e+00 6.7363907909e-01 6.3853003428e-01 -3.7214215891e-01 0.0000000000e+00
26 1.0000000000e+00 1.0000000000e+00 2.0000000000e+00 4.3110814327e-01 6.9698054904e-01 -5.7303043816e-01 0.0000000000e+00
27 1.0000000000e+00 1.0000000000e+00 2.0000000000e+00 9.2458313539e-01 3.7457602282e-01 6.9561691142e-02 -0.0000000000e+00
28 1.0000000000e+00 1.0000000000e+00 2.0000000000e+00 5.1593928751e-01 -8.5246010812e-01 8.4370703789e-02 0.0000000000e+00
29 1.0000000000e+00 1.0000000000e+00 2.0000000000e+00 5.7658161998e-01 -9.8934425486e-02 -8.1102750567e-01 0.0000000000e+00
30 1.0000000000e+00 1.0000000000e+00 2.0000000000e+00 7.8955689799e-01 8.4705896567e-02 -6.0780327074e-01 0.0000000000e+00
31 1.0000000000e+00 1.0000000000e+00 2.0000000000e+00 3.4690085457e-01 -2.9088594113e-01 8.9165305268e-01 0.0000000000e+00
32 1.0000000000e+00 1.0000000000e+00 2.0000000000e+00 5.4386989429e-01 7.5867501815e-01 3.5863317598e-01 -0.0000000000e+00
33 1.0000000000e+00 1.0000000000e+00 2.0000000000e+00 6.8372570184e-01 8.9797346591e-02 -7.2419306900e-01 0.0000000000e+00
34 1.0000000000e+00 1.0000000000e+00 2.0000000000e+00 3.8223761176e-01 -3.5375842276e-01 8.5366819461e-01 0.0000000000e+00
35 1.0000000000e+00 1.0000000000e+00 2.0000000000e+00 8.7155708171e-01 4.8948208235e-01 2.8205396221e-02 -0.0000000000e+00
36 1.0000000000e+00 1.0000000000e+00 2.0000000000e+00 7.6505786609e-01 4.5282101583e-01 4.5786416016e-01 -0.0000000000e+00
37 1.0000000000e+00 1.0000000000e+00 2.0000000000e+00 3.6259740905e-01 3.7643771090e-02 9.3118530135e-01 -0.0000000000e+00
38 1.0000000000e+00 1.0000000000e+00 2.0000000000e+00 2.0636268340e-01 9.7802023704e-01 2.9847258596e-02 -0.0000000000e+00
39 1.0000000000e+00 1.0000000000e+00 2.0000000000e+00 8.5326137344e-01 7.6200040202e-02 -5.1588621078e-01 0.0000000000e+00
40 1.0000000000e+00 1.0000000000e+00 2.0000000000e+00 5.0055272816e-01 1.9230973964e-01 -8.4407578473e-01 0.0000000000e+00
41 1.0000000000e+00 1.0000000000e+00 2.0000000000e+00 5.5311697350e-01 4.6197393921e-01 -6.9328327047e-01 0.0000000000e+00
42 1.0000000000e+00 1.0000000000e+00 2.0000000000e+00 9.8413891301e-01 3.7138675841e-02 -1.7346849473e-01 0.0000000000e+00
43 1.0000000000e+00 1.0000000000e+00 2.0000000000e+00 9.5867832890e-01 -3.0114141996e-02 -2.8289397334e-01 0.0000000000e+00
44 1.0000000000e+00 1.0000000000e+00 2.0000000000e+00 5.2110535119e-01 -2.6770696917e-01 -8.1042099653e-01 0.0000000000e+00
45 1.0000000000e+00 1.0000000000e+00 2.0000000000e+00 7.0104298440e-01 4.8105912278e-01 5.2642269557e-01 -0.0000000000e+00
46 1.0000000000e+00 1.0000000000e+00 2.0000000000e+00 4.1364637686e-01 -7.3934198548e-01 -5.3129097810e-01 0.0000000000e+00
47 1.0000000000e+00 1.0000000000e+00 2.0000000000e+00 9.9642771365e-01 8.0595518483e-02 -2.5222487588e-02 0.0000000000e+00
48 1.0000000000e+00 1.0000000000e+00 2.0000000000e+00 1.8958093761e-01 1.8499587016e-01 9.6427983289e-01 -0.0000000000e+00
49 1.0000000000e+00 1.0000000000e+00 2.0000000000e+00 7.3692154186e-01 5.0111580472e-01 -4.5368446238e-01 0.0000000000e+00
50 1.0000000000e+00 1.0000000000e+00 2.0000000000e+00 7.3181035181e-01 6.7975749758e-02 6.7810980411e-01 -0.0000000000e+00
51 1.0000000000e+00 1.0000000000e+00 2.0000000000e+00 8.3357796177e-01 -5.2957477437e-01 1.5715705522e-01 0.0000000000e+00
52 1.0000000000e+00 1.0000000000e+00 2.0000000000e+00 2.7127323353e-01 6.8626828340e-01 6.7486789520e-01 -0.0000000000e+00
53 1.0000000000e+00 1.0000000000e+00 2.0000000000e+00 8.8595045878e-01 4.6374007181e-01 6.0770379154e-03 -0.0000000000e+00
54 1.0000000000e+00 1.0000000000e+00 2.0000000000e+00 4.4150649612e-01 -4.3509575797e-01 -7.8470612033e-01 0.0000000000e+00
55 1.0000000000e+00 1.0000000000e+00 2.0000000000e+00 4.1295184714e-01 7.2542399614e-01 5.5066396084e-01 -0.0000000000e+00
56 1.0000000000e+00 1.0000000000e+00 2.0000000000e+00 7.4696635176e-01 -3.9828327921e-01 -5.3236425391e-01 0.0000000000e+00
57 1.0000000000e+00 1.0000000000e+00 2.0000000000e+00 6.7889020981e-01 2.3273185949e-01 6.9637918162e-01 -0.0000000000e+00
58 1.0000000000e+00 1.0000000000e+00 2.0000000000e+00 7.5054356067e-01 -4.4702469064e-01 4.8667575397e-01 0.0000000000e+00
59 1.0000000000e+00 1.0000000000e+00 2.0000000000e+00 8.6983211277e-01 2.8732787331e-01 4.0104212849e-01 -0.0000000000e+00
60 1.0000000000e+00 1.0000000000e+00 2.0000000000e+00 5.1350638189e-01 8.4382533897e-01 1.5578829566e-01 -0.0000000000e+00
61 1.0000000000e+00 1.0000000000e+00 2.0000000000e+00 9.3417477456e-01 -3.5373892979e-01 -4.6757460727e-02 0.0000000000e+00
62 1.0000000000e+00 1.0000000000e+00 2.0000000000e+00 9.2310107471e-01 3.5596490178e-01 1.4551080570e-01 -0.0000000000e+00
63 1.0000000000e+00 1.0000000000e+00 2.0000000000e+00 1.6513359169e-01 -5.9149618835e-01 7.8921679915e-01 0.0000000000e+00
64 1.0000000000e+00 1.0000000000e+00 2.0000000000e+00 3.3632519195e-01 -8.3219407570e-01 -4.4083827604e-01 0.0000000000e+00
65 1.0000000000e+00 1.0000000000e+00 2.0000000000e+00 7.0620171992e-01 2.4221633871e-01 -6.6528969333e-01 0.0000000000e+00
66 1.0000000000e+00 1.0000000000e+00 2.0000000000e+00 7.6432205302e-01 -1.8146538740e-01 -6.1877468633e-01 0.0000000000e+00
67 1.0000000000e+00 1.0000000000e+00 2.0000000000e+00 5.2802584634e-01 -5.9205715091e-01 -6.0881609346e-01 0.0000000000e+00
68 1.0000000000e+00 1.0000000000e+00 2.0000000000e+00 4.6451905315e-01 -8.7872388201e-01 1.0984711393e-01 0.0000000000e+00
69 1.0000000000e+00 1.0000000000e+00 2.0000000000e+00 9.1124343250e-01 1.5903581925e-01 3.7992501222e-01 -0.0000000000e+00
70 1.0000000000e+00 1.0000000000e+00 2.0000000000e+00 6.5165739828e-01 6.0730749991e-01 4.5444497558e-01 -0.0000000000e+00
71 1.0000000000e+00 1.0000000000e+00 2.0000000000e+00 8.4555454701e-01 4.6693982320e-01 -2.5885267924e-01 0.0000000000e+00
72 1.0000000000e+00 1.0000000000e+00 2.0000000000e+00 6.5681897053e-01 -3.8219915973e-01 -6.5000972474e-01 0.0000000000e+00
73 1.0000000000e+00 1.0000000000e+00 2.0000000000e+00 5.5059412501e-01 1.3419117854e-01 8.2391676589e-01 -0.0000000000e+00
74 1.0000000000e+00 1.0000000000e+00 2.0000000000e+00 8.0928492083e-01 -3.3965746814e-01 -4.7926059848e-01 0.0000000000e+00
75 1.0000000000e+00 1.0000000000e+00 2.0000000000e+00 9.6984982711e-01 2.4359450437e-01 -7.2821897594e-03 0.0000000000e+00
76 1.0000000000e+00 1.0000000000e+00 2.0000000000e+00 3.7337042264e-01 5.8114455718e-01 -7.2309441372e-01 0.0000000000e+00
77 1.0000000000e+00 1.0000000000e+00 2.0000000000e+00 6.5984118667e-01 2.4225341738e-01 7.1128256701e-01 -0.0000000000e+00
78 1.0000000000e+00 1.0000000000e+00 2.0000000000e+00 6.1429227469e-01 4.9900753570e-01 6.1125811289e-01 -0.0000000000e+00
79 1.0000000000e+00 1.0000000000e+00 2.0000000000e+00 7.7099009479e-01 5.6735745650e-01 -2.8927459323e-01 0.0000000000e+00
80 1.0000000000e+00 1.0000000000e+00 2.0000000000e+00 6.2510215721e-01 1.0672814372e-01 -7.7321174098e-01 0.0000000000e+00
81 1.0000000000e+00 1.0000000000e+00 2.0000000000e+00 8.3409502300e-01 3.2051686811e-01 4.4894813717e-01 -0.0000000000e+00
82 1.0000000000e+00 1.0000000000e+00 2.0000000000e+00 9.2268359498e-01 1.6824170867e-01 -3.4691455867e-01 0.0000000000e+00
83 1.0000000000e+00 1.0000000000e+00 2.0000000000e+00 5.5875805947e-01 -7.8318955951e-01 -2.7277013190e-01 0.0000000000e+00
84 1.0000000000e+00 1.0000000000e+00 2.0000000000e+00 5.2062942287e-01 -4.3324070094e-01 7.3569524879e-01 0.0000000000e+00
85 1.0000000000e+00 1.0000000000e+00 2.0000000000e+00 7.8025588326e-01 5.1542013023e-01 3.5432025907e-01 -0.0000000000e+00
86 1.0000000000e+00 1.0000000000e+00 2.0000000000e+00 7.9966824158e-01 -4.8469223381e-01 3.5440674640e-01 0.0000000000e+00
87 1.0000000000e+00 1.0000000000e+00 2.0000000000e+00 9.4402440230e-01 -3.2811144436e-01 -3.4070631637e-02 0.0000000000e+00
88 1.0000000000e+00 1.0000000000e+00 2.0000000000e+00 9.7906633684e-01 1.7468920653e-01 1.0446429623e-01 -0.0000000000e+00
89 1.0000000000e+00 1.0000000000e+00 2.0000000000e+00 1.4586616485e-01 9.8929764752e-01 3.6368337590e-03 -0.0000000000e+00
90 1.0000000000e+00 1.0000000000e+00 2.0000000000e+00 8.1682690908e-01 -3.2851995909e-01 -4.7420294925e-01 0.0000000000e+00
91 1.0000000000e+00 1.0000000000e+00 2.0000000000e+00 7.8688398963e-01 4.5581659497e-01 -4.1598656062e-01 0.0000000000e+00
92 1.0000000000e+00 1.0000000000e+00 2.0000000000e+00 9.0246513152e-01 -4.1316502734e-01 1.2186610103e-01 0.0000000000e+00
93 1.0000000000e+00 1.0000000000e+00 2.0000000000e+00 9.3929870872e-01 1.0894648493e-01 -3.2534381693e-01 0.0000000000e+00
94 1.0000000000e+00 1.0000000000e+00 2.0000000000e+00 7.4868655469e-01 6.5746895007e-01 8.4870622264e-02 -0.0000000000e+00
95 1.0000000000e+00 1.0000000000e+00 2.0000000000e+00 4.4659117535e-01 -2.9186309593e-01 -8.4579681681e-01 0.0000000000e+00
96 1.0000000000e+00 1.0000000000e+00 2.0000000000e+00 9.5813994801e-01 2.7216079835e-01 8.8861351955e-02 -0.0000000000e+00
97 1.0000000000e+00 1.0000000000e+00 2.0000000000e+00 2.2861134194e-01 -6.3923515279e-01 -7.3424469612e-01 0.0000000000e+00
98 1.0000000000e+00 1.0000000000e+00 2.0000000000e+00 3.4738552623e-01 4.5954878845e-01 -8.1739721507e-01 0.0000000000e+00
99 1.0000000000e+00 1.0000000000e+00 2.0000000000e+00 7.2383168369e-01 4.0898016937e-01 -5.5570038217e-01 0.0000000000e+00
100 1.0000000000e+00 1.0000000000e+00 2.0000000000e+00 5.1924375123e-01 -7.0544885643e-01 4.8241873695e-01 0.0000000000e+00
101 1.0000000000e+00 1.0000000000e+00 2.0000000000e+00 8.1262213565e-01 -5.6089651823e-01 1.5824146260e-01 0.0000000000e+00
102 1.0000000000e+00 1.0000000000e+00 2.0000000000e+00 7.1151694687e-01 1.3202498672e-01 6.9015435751e-01 -0.0000000000e+00
103 1.0000000000e+00 1.0000000000e+00 2.0000000000e+00 5.7902049065e-01 -7.4013361290e-01 3.4196126456e-01 0.0000000000e+00
104 1.0000000000e+00 1.0000000000e+00 2.0000000000e+00 6.0343327553e-01 8.7455112355e-02 -7.9260323322e-01 0.0000000000e+00
105 1.0000000000e+00 1.0000000000e+00 2.0000000000e+00 5.9442352982e-01 2.4746412894e-01 7.6512885979e-01 -0.0000000000e+00
106 1.0000000000e+00 1.0000000000e+00 2.0000000000e+00 5.0956694860e-01 -4.2294992117e-01 -7.4930293545e-01 0.0000000000e+00
107 1.0000000000e+00 1.0000000000e+00 2.0000000000e+00 7.7631989806e-01 2.8956769604e-01 5.5989102984e-01 -0.0000000000e+00
108 1.0000000000e+00 1.0000000000e+00 2.0000000000e+00 9.7185667328e-01 -1.5791412887e-01 1.7480770724e-01 0.0000000000e+00
109 1.0000000000e+00 1.0000000000e+00 2.0000000000e+00 9.4886144123e-01 3.1486829116e-01 2.2801854459e-02 -0.0000000000e+00
110 1.0000000000e+00 1.0000000000e+00 2.0000000000e+00 3.6326244791e-01 1.6510041206e-01 -9.1694179089e-01 0.0000000000e+00
111 1.0000000000e+00 1.0000000000e+00 2.0000000000e+00 8.6164913538e-01 -4.7070730322e-01 1.8972454296e-01 0.0000000000e+00
112 1.0000000000e+00 1.0000000000e+00 2.0000000000e+00 7.2302999606e-01 3.2710671430e-01 -6.0846431470e-01 0.0000000000e+00
113 1.0000000000e+00 1.0000000000e+00 2.0000000000e+00 4.9562269004e-01 8.3435337119e-01 2.4127287683e-01 -0.0000000000e+00
114 1.0000000000e+00 1.0000000000e+00 2.0000000000e+00 8.3995665927e-01 -2.7788778637e-01 -4.6610212264e-01 0.0000000000e+00
115 1.0000000000e+00 1.0000000000e+00 2.0000000000e+00 9.1034968202e-01 -1.2195900876e-01 -3.9546106840e-01 0.0000000000e+00
116 1.0000000000e+00 1.0000000000e+00 2.0000000000e+00 5.5809591912e-01 6.7108173665e-01 -4.8803508870e-01 0.0000000000e+00
117 1.0000000000e+00 1.0000000000e+00 2.0000000000e+00 9.6078708765e-01 2.6632469909e-01 -7.7196676477e-02 0.0000000000e+00
118 1.0000000000e+00 1.0000000000e+00 2.0000000000e+00 2.8500119135e-01 -3.3164152031e-01 -8.9932653854e-01 0.0000000000e+00
119 1.0000000000e+00 1.0000000000e+00 2.0000000000e+00 7.6998160458e-01 4.2139383368e-01 4.7911957332e-01 -0.0000000000e+00
120 1.0000000000e+00 1.0000000000e+00 2.0000000000e+00 1.2685266891e-01 2.1059756896e-01 -9.6930751794e-01 0.0000000000e+00
121 1.0000000000e+00 1.0000000000e+00 2.0000000000e+00 9.0319105150e-01 4.2462439617e-01 6.2769791023e-02 -0.0000000000e+00
122 1.0000000000e+00 1.0000000000e+00 2.0000000000e+00 3.6636019470e-01 -8.0692563046e-01 4.6330468877e-01 0.0000000000e+00
123 1.0000000000e+00 1.0000000000e+00 2.0000000000e+00 9.8466493247e-01 1.4323657106e-01 9.9590438682e-02 -0.0000000000e+00
124 1.0000000000e+00 1.0000000000e+00 2.0000000000e+00 8.0643307016e-01 5.2705939856e-01 -2.6809344218e-01 0.0000000000e+00
125 1.0000000000e+00 1.0000000000e+00 2.0000000000e+00 3.3842808351e-01 -9.8940007004e-02 9.3577631265e-01 0.0000000000e+00
126 1.0000000000e+00 1.0000000000e+00 2.0000000000e+00 9.8682029057e-01 4.1709123463e-02 1.5635236853e-01 -0.0000000000e+00
127 1.0000000000e+00 1.0000000000e+00 2.0000000000e+00 5.5008764091e-01 7.9613847641e-01 2.5212519450e-01 -0.0000000000e+00
128 1.0000000000e+00 1.0000000000e+00 2.0000000000e+00 5.3244260077e-01 -2.6470139494e-02 -8.4605213114e-01 0.0000000000e+00
129 1.0000000000e+00 1.0000000000e+00 2.0000000000e+00 4.2066357382e-01 -4.6739042179e-02 -9.0601193127e-01 0.0000000000e+00
130 1.0000000000e+00 1.0000000000e+00 2.0000000000e+00 7.2376902623e-01 6.5158757984e-01 2.2713877359e-01 -0.0000000000e+00
131 1.0000000000e+00 1.0000000000e+00 2.0000000000e+00 6.9635418070e-01 6.7443585463e-01 -2.4541216963e-01 0.0000000000e+00
132 1.0000000000e+00 1.0000000000e+00 2.0000000000e+00 3.0933578177e-01 -4.3642252500e-01 8.4489452229e-01 0.0000000000e+00
133 1.0000000000e+00 1.0000000000e+00 2.0000000000e+00 7.1259874780e-01 7.0068999741e-01 -3.5164643575e-02 0.0000000000e+00
134 1.0000000000e+00 1.0000000000e+00 2.0000000000e+00 9.9861231431e-01 -4.8311932092e-02 2.0961940054e-02 0.0000000000e+00
135 1.0000000000e+00 1.0000000000e+00 2.0000000000e+00 9.5657125821e-01 1.1849092192e-01 2.6632936262e-01 -0.0000000000e+00
136 1.0000000000e+00 1.0000000000e+00 2.0000000000e+00 8.9556208680e-01 1.2780099407e-01 -4.2618711219e-01 0.0000000000e+00
137 1.0000000000e+00 1.0000000000e+00 2.0000000000e+00 7.9789770839e-01 -5.8963505154e-01 -1.2525874395e-01 0.0000000000e+00
138 1.0000000000e+00 1.0000000000e+00 2.0000000000e+00 9.2194530854e-01 2.5457667343e-01 -2.9190334941e-01 0.0000000000e+00
139 1.0000000000e+00 1.0000000000e+00 2.0000000000e+00 4.7887063341e-01 8.7787927168e-01 3.3016387174e-03 -0.0000000000e+00
140 1.0000000000e+00 1.0000000000e+00 2.0000000000e+00 8.7086743642e-01 1.6987504617e-01 4.6122920210e-01 -0.0000000000e+00
141 1.0000000000e+00 1.0000000000e+00 2.0000000000e+00 4.3281762420e-01 -8.3585860743e-01 3.3765262114e-01 0.0000000000e+00
142 1.0000000000e+00 1.0000000000e+00 2.0000000000e+00 6.5026213145e-01 4.7526361843e-01 5.9269187053e-01 -0.0000000000e+00
143 1.0000000000e+00 1.0000000000e+00 2.0000000000e+00 8.3534192357e-01 5.3359211289e-01 1.3222453550e-01 -0.0000000000e+00
144 1.0000000000e+00 1.0000000000e+00 2.0000000000e+00 2.4705654001e-01 9.3589308990e-01 -2.5113181860e-01 0.0000000000e+00
145 1.0000000000e+00 1.0000000000e+00 2.0000000000e+00 8.0207983912e-01 -5.8997276554e-01 -9.2736549409e-02 0.0000000000e+00
146 1.0000000000e+00 1.0000000000e+00 2.0000000000e+00 8.9508867851e-01 -4.4296313522e-01 -5.0989395261e-02 0.0000000000e+00
147 1.0000000000e+00 1.0000000000e+00 2.0000000000e+00 8.0160577156e-01 -4.5423807138e-01 3.8871063983e-01 0.0000000000e+00
148 1.0000000000e+00 1.0000000000e+00 2.0000000000e+00 6.0064405986e-01 6.6292543856e-01 4.4694135662e-01 -0.0000000000e+00
149 1.0000000000e+00 1.0000000000e+00 2.0000000000e+00 8.4384094403e-01 5.3655492680e-01 6.4243051095e-03 -0.0000000000e+00
150 1.0000000000e+00 1.0000000000e+00 2.0000000000e+00 6.9378788911e-01 6.4934585851e-01 -3.1146158826e-01 0.0000000000e+00
151 1.0000000000e+00 1.0000000000e+00 2.0000000000e+00 6.1361613018e-01 6.8405542493e-01 3.9438993447e-01 -0.0000000000e+00
152 1.0000000000e+00 1.0000000000e+00 2.0000000000e+00 7.9156870797e-01 -5.5827086552e-01 2.4850074702e-01 0.0000000000e+00
153 1.0000000000e+00 1.0000000000e+00 2.0000000000e+00 3.1471042408e-01 -3.4650241575e-01 8.8368174410e-01 0.0000000000e+00
154 1.0000000000e+00 1.0000000000e+00 2.0000000000e+00 9.3655083859e-01 -1.4132428727e-02 3.5024677186e-01 0.0000000000e+00
155 1.0000000000e+00 1.0000000000e+00 2.0000000000e+00 5.3787863790e-01 8.4199875459e-01 4.1529124096e-02 -0.0000000000e+00
156 1.0000000000e+00 1.0000000000e+00 2.0000000000e+00 7.6130999596e-01 5.7445436505e-01 -3.0068134717e-01 0.0000000000e+00
157 1.0000000000e+00 1.0000000000e+00 2.0000000000e+00 9.6366510244e-01 -6.2616024507e-02 -2.5967056785e-01 0.0000000000e+00
158 1.0000000000e+00 1.0000000000e+00 2.0000000000e+00 7.3945302798e-01 -6.4147872477e-01 -2.0424070378e-01 0.0000000000e+00
159 1.0000000000e+00 1.0000000000e+00 2.0000000000e+00 8.0152256418e-01 2.6714439146e-01 5.3497238548e-01 -0.0000000000e+00
160 1.0000000000e+00 1.0000000000e+00 2.0000000000e+00 6.4632092233e-01 7.3812570038e-01 -1.9349345156e-01 0.0000000000e+00
161 1.0000000000e+00 1.0000000000e+00 2.0000000000e+00 6.8854631056e-01 -3.7359847675e-01 6.2155301977e-01 0.0000000000e+00
162 1.0000000000e+00 1.0000000000e+00 2.0000000000e+00 8.9475846114e-01 -2.7308864897e-01 -3.5331273119e-01 0.0000000000e+00
163 1.0000000000e+00 1.0000000000e+00 2.0000000000e+00 3.1812490096e-01 -9.2442555707e-01 -2.1031865545e-01 0.0000000000e+00
164 1.0000000000e+00 1.0000000000e+00 2.0000000000e+00 9.4356579607e-01 -1.8886930604e-01 -2.7205141744e-01 0.0000000000e+00
165 1.0000000000e+00 1.0000000000e+00 2.0000000000e+00 8.1688100248e-01 -4.4399680455e-01 -3.6820139236e-01 0.0000000000e+00
166 1.0000000000e+00 1.0000000000e+00 2.0000000000e+00 7.4761549217e-01 -6.6297475852e-01 -3.9186036289e-02 0.0000000000e+00
167 1.0000000000e+00 1.0000000000e+00 2.0000000000e+00 8.2176644716e-01 -3.8779633773e-01 4.1750916967e-01 0.0000000000e+00
168 1.0000000000e+00 1.0000000000e+00 2.0000000000e+00 6.9908172558e-01 1.6216210591e-01 6.9641093642e-01 -0.0000000000e+00
169 1.0000000000e+00 1.0000000000e+00 2.0000000000e+00 5.4289254133e-01 7.6972773348e-01 -3.3583761683e-01 0.0000000000e+00
170 1.0000000000e+00 1.0000000000e+00 2.0000000000e+00 7.6023492008e-01 1.4987862583e-01 6.3212282335e-01 -0.0000000000e+00
171 1.0000000000e+00 1.0000000000e+00 2.0000000000e+00 9.3534737229e-01 -2.7510148912e-01 -2.2236111133e-01 0.0000000000e+00
172 1.0000000000e+00 1.0000000000e+00 2.0000000000e+00 8.5298659088e-01 4.3986806661e-01 -2.8094476281e-01 0.0000000000e+00
173 1.0000000000e+00 1.0000000000e+00 2.0000000000e+00 2.3465891947e-01 -9.6201740581e-01 -1.3949086862e-01 0.0000000000e+00
174 1.0000000000e+00 1.0000000000e+00 2.0000000000e+00 8.3041432870e-01 -1.4028104057e-01 -5.3919687716e-01 0.0000000000e+00
175 1.0000000000e+00 1.0000000000e+00 2.0000000000e+00 5.2137249369e-01 -2.7402918769e-01 -8.0813286477e-01 0.0000000000e+00
176 1.0000000000e+00 1.0000000000e+00 2.0000000000e+00 6.2677146776e-01 -6.2807337621e-01 4.6117389485e-01 0.0000000000e+00
177 1.0000000000e+00 1.0000000000e+00 2.0000000000e+00 9.1127124180e-01 -3.9762639592e-01 1.0713530292e-01 0.0000000000e+00
178 1.0000000000e+00 1.0000000000e+00 2.0000000000e+00 9.8609600537e-01 1.6555604492e-01 -1.4347967579e-02 0.0000000000e+00
179 1.0000000000e+00 1.0000000000e+00 2.0000000000e+00 4.5646862896e-01 7.9409426904e-01 -4.0131120424e-01 0.0000000000e+00
180 1.0000000000e+00 1.0000000000e+00 2.0000000000e+00 7.4382811904e-01 -5.1669507085e-01 4.2396454225e-01 0.0000000000e+00
181 1.0000000000e+00 1.0000000000e+00 2.0000000000e+00 7.3711376234e-01 4.6296411662e-01 -4.9226774025e-01 0.0000000000e+00
182 1.0000000000e+00 1.0000000000e+00 2.0000000000e+00 1.7814495150e-01 -9.6898766555e-01 -1.7125209567e-01 0.0000000000e+00
183 1.0000000000e+00 1.0000000000e+00 2.0000000000e+00 4.7666657905e-01 8.7072057772e-01 -1.2097374901e-01 0.0000000000e+00
184 1.0000000000e+00 1.0000000000e+00 2.0000000000e+00 6.6778491819e-01 1.4428828861e-01 -7.3023571045e-01 0.0000000000e+00
185 1.0000000000e+00 1.0000000000e+00 2.0000000000e+00 8.1915231313e-01 -5.3821292540e-01 1.9828347087e-01 0.0000000000e+00
186 1.0000000000e+00 1.0000000000e+00 2.0000000000e+00 6.8266635354e-01 4.9884762818e-01 5.3396413139e-01 -0.0000000000e+00
187 1.0000000000e+00 1.0000000000e+00 2.0000000000e+00 5.2312412778e-01 6.7962553015e-01 -5.1424730014e-01 0.0000000000e+00
188 1.0000000000e+00 1.0000000000e+00 2.0000000000e+00 6.2079978847e-01 -4.5272124196e-01 -6.4003992040e-01 0.0000000000e+00
189 1.0000000000e+00 1.0000000000e+00 2.0000000000e+00 5.3971243163e-01 7.5337305160e-01 -3.7568542194e-01 0.0000000000e+00
190 1.0000000000e+00 1.0000000000e+00 2.0000000000e+00 8.0553359975e-01 -3.0908826280e-01 -5.0554927107e-01 0.0000000000e+00
191 1.0000000000e+00 1.0000000000e+00 2.0000000000e+00 4.5130104172e-01 -2.1039254275e-01 8.6721528336e-01 0.0000000000e+00
192 1.0000000000e+00 1.0000000000e+00 2.0000000000e+00 6.5417008393e-01 -7.7607633412e-02 7.5235533927e-01 0.0000000000e+00
193 1.0000000000e+00 1.0000000000e+00 2.0000000000e+00 8.8644078491e-01 3.6022050008e-01 2.9062678160e-01 -0.0000000000e+00
194 1.0000000000e+00 1.0000000000e+00 2.0000000000e+00 8.6882625806e-01 2.2295023290e-01 4.4207932201e-01 -0.0000000000e+00
195 1.0000000000e+00 1.0000000000e+00 2.0000000000e+00 3.6878077978e-01 7.4160260126e-01 -5.6038051204e-01 0.0000000000e+00
196 1.0000000000e+00 1.0000000000e+00 2.0000000000e+00 9.4625810357e-01 -3.1925775988e-01 -5.1672857400e-02 0.0000000000e+00
197 1.0000000000e+00 1.0000000000e+00 2.0000000000e+00 7.7127662565e-01 -4.6350996754e-01 -4.3622342523e-01 0.0000000000e+00
198 1.0000000000e+00 1.0000000000e+00 2.0000000000e+00 5.2498812127e-01 -6.8661120638e-02 8.4833550146e-01 0.0000000000e+00
199 1.0000000000e+00 1.0000000000e+00 2.0000000000e+00 8.6279465684e-01 -1.4104787433e-01 -4.8548004827e-01 0.0000000000e+00
200 1.0000000000e+00 1.0000000000e+00 2.0000000000e+00 7.8591808084e-01 6.1470945130e-01 -6.6821109544e-02 0.0000000000e+00
201 1.0000000000e+00 1.0000000000e+00 2.0000000000e+00 9.7695170489e-01 -2.1310125972e-01 1.2378183526e-02 0.0000000000e+00
202 1.0000000000e+00 1.0000000000e+00 2.0000000000e+00 4.6787836471e-01 -4.7139139552e-01 7.4758276336e-01 0.0000000000e+00
203 1.0000000000e+00 1.0000000000e+00 2.0000000000e+00 7.7764006344e-01 5.7210123954e-01 -2.6072227264e-01 0.0000000000e+00
204 1.0000000000e+00 1.0000000000e+00 2.0000000000e+00 7.4388007660e-01 -3.8218945841e-01 -5.4824597538e-01 0.0000000000e+00
205 1.0000000000e+00 1.0000000000e+00 2.0000000000e+00 4.1052496666e-01 3.2153921339e-01 -8.5327708630e-01 0.0000000000e+00
206 1.0000000000e+00 1.0000000000e+00 2.0000000000e+00 8.7207184710e-01 3.2650345566e-01 3.6453557707e-01 -0.0000000000e+00
207 1.0000000000e+00 1.0000000000e+00 2.0000000000e+00 5.6185181595e-01 -7.9949468861e-01 -2.1244006168e-01 0.0000000000e+00
208 1.0000000000e+00 1.0000000000e+00 2.0000000000e+00 9.5383867950e-01 1.8587058772e-01 -2.3588958880e-01 0.0000000000e+00
209 1.0000000000e+00 1.0000000000e+00 2.0000000000e+00 5.8832137037e-01 8.0261840504e-01 -9.8395432089e-02 0.0000000000e+00
210 1.0000000000e+00 1.0000000000e+00 2.0000000000e+00 3.0017652691e-01 -9.2810742489e-01 2.2025135765e-01 0.0000000000e+00
211 1.0000000000e+00 1.0000000000e+00 2.0000000000e+00 9.3039776193e-01 3.6433080106e-01 -4.0287367534e-02 0.0000000000e+00
212 1.0000000000e+00 1.0000000000e+00 2.0000000000e+00 5.8509748330e-01 3.0110934527e-01 -7.5299010434e-01 0.0000000000e+00
213 1.0000000000e+00 1.0000000000e+00 2.0000000000e+00 5.3547037262e-01 -6.7368678620e-02 -8.4186278050e-01 0.0000000000e+00
214 1.0000000000e+00 1.0000000000e+00 2.0000000000e+00 9.8959740654e-01 1.3139886588e-01 5.8577393355e-02 -0.0000000000e+00
215 1.0000000000e+00 1.0000000000e+00 2.0000000000e+00 2.0029107554e-01 -9.4942211338e-01 -2.4182873212e-01 0.0000000000e+00
216 1.0000000000e+00 1.0000000000e+00 2.0000000000e+00 4.2807972685e-01 8.6474229542e-01 -2.6261856367e-01 0.0000000000e+00
217 1.0000000000e+00 1.0000000000e+00 2.0000000000e+00 9.2431376800e-01 1.9155067024e-01 -3.3007938291e-01 0.0000000000e+00
218 1.0000000000e+00 1.0000000000e+00 2.0000000000e+00 9.9186445892e-01 -1.2516918608e-01 2.3185555790e-02 0.0000000000e+00
219 1.0000000000e+00 1.0000000000e+00 2.0000000000e+00 9.5696616941e-01 -1.6392429656e-01 -2.3946727459e-01 0.0000000000e+00
220 1.0000000000e+00 1.0000000000e+00 2.0000000000e+00 8.4540112888e-01 -3.8582837957e-01 -3.6936891153e-01 0.0000000000e+00
221 1.0000000000e+00 1.0000000000e+00 2.0000000000e+00 7.5330625652e-01 6.5363077248e-01 -7.2777037257e-02 0.0000000000e+00
222 1.0000000000e+00 1.0000000000e+00 2.0000000000e+00 8.8470449466e-01 -4.6504983563e-01 3.2040716443e-02 0.0000000000e+00
223 1.0000000000e+00 1.0000000000e+00 2.0000000000e+00 4.5429385535e-01 -3.4295910214e-01 8.2218984866e-01 0.0000000000e+00
224 1.0000000000e+00 1.0000000000e+00 2.0000000000e+00 8.0684406700e-01 -2.6114133246e-01 -5.2991306460e-01 0.0000000000e+00
225 1.0000000000e+00 1.0000000000e+00 2.0000000000e+00 9.9758888507e-01 -3.4158996418e-02 6.0411748501e-02 0.0000000000e+00
226 1.0000000000e+00 1.0000000000e+00 2.0000000000e+00 5.0345106686e-01 8.5393234784e-01 1.3166840389e-01 -0.0000000000e+00
227 1.0000000000e+00 1.0000000000e+00 2.0000000000e+00 9.2099255535e-01 1.7364796315e-01 3.4873929787e-01 -0.0000000000e+00
228 1.0000000000e+00 1.0000000000e+00 2.0000000000e+00 6.5359899930e-01 3.5627047833e-01 -6.6774223648e-01 0.0000000000e+00
229 1.0000000000e+00 1.0000000000e+00 2.0000000000e+00 7.7058053672e-02 -7.6257601381e-01 6.4229267435e-01 0.0000000000e+00
230 1.0000000000e+00 1.0000000000e+00 2.0000000000e+00 3.8450479269e-01 1.9789720461e-01 -9.0166111195e-01 0.0000000000e+00
231 1.0000000000e+00 1.0000000000e+00 2.0000000000e+00 7.6010321969e-01 6.4546260248e-01 7.4974157035e-02 -0.0000000000e+00
232 1.0000000000e+00 1.0000000000e+00 2.0000000000e+00 7.6010795029e-01 5.5332351327e-01 -3.4068899831e-01 0.0000000000e+00
233 1.0000000000e+00 1.0000000000e+00 2.0000000000e+00 6.1987767583e-01 7.5588457628e-01 -2.1068975853e-01 0.0000000000e+00
234 1.0000000000e+00 1.0000000000e+00 2.0000000000e+00 4.0699584085e-01 7.1732790583e-01 5.6550425378e-01 -0.0000000000e+00
235 1.0000000000e+00 1.0000000000e+00 2.0000000000e+00 9.3572433433e-01 2.1660232639e-01 -2.7839432885e-01 0.0000000000e+00
236 1.0000000000e+00 1.0000000000e+00 2.0000000000e+00 6.7743018645e-01 -7.0372598219e-01 2.1414500806e-01 0.0000000000e+00
237 1.0000000000e+00 1.0000000000e+00 2.0000000000e+00 8.2978911514e-01 -4.4236107260e-01 3.4024506734e-01 0.0000000000e+00
238 1.0000000000e+00 1.0000000000e+00 2.0000000000e+00 8.6614222277e-01 -4.9419735244e-01 7.4609830276e-02 0.0000000000e+00
239 1.0000000000e+00 1.0000000000e+00 2.0000000000e+00 9.1022683856e-01 2.9560576786e-01 2.9000746952e-01 -0.0000000000e+00
240 1.0000000000e+00 1.0000000000e+00 2.0000000000e+00 7.4576255190e-01 -6.6027330672e-01 8.8754586424e-02 0.0000000000e+00
241 1.0000000000e+00 1.0000000000e+00 2.0000000000e+00 4.2355593182e-01 8.2864546827e-01 -3.6598778740e-01 0.0000000000e+00
242 1.0000000000e+00 1.0000000000e+00 2.0000000000e+00 5.0438218744e-01 -8.2834857944e-01 -2.4379753881e-01 0.0000000000e+00
243 1.0000000000e+00 1.0000000000e+00 2.0000000000e+00 6.8381111842e-01 -5.4199487255e-01 -4.8851193687e-01 0.0000000000e+00
244 1.0000000000e+00 1.0000000000e+00 2.0000000000e+00 5.5618432632e-01 -8.0945196901e-01 1.8827242237e-01 0.0000000000e+00
245 1.0000000000e+00 1.0000000000e+00 2.0000000000e+00 6.9836851366e-01 -7.2167652414e-02 -7.1209075902e-01 0.0000000000e+00
246 1.0000000000e+00 1.0000000000e+00 2.0000000000e+00 2.7837128621e-01 -7.8869754739e-01 -5.4814743067e-01 0.0000000000e+00
247 1.0000000000e+00 1.0000000000e+00 2.0000000000e+00 8.0280121302e-01 3.7447467108e-01 -4.6398160857e-01 0.0000000000e+00
248 1.0000000000e+00 1.0000000000e+00 2.0000000000e+00 9.8008398506e-01 8.6431085445e-02 1.7878772245e-01 -0.0000000000e+00
249 1.0000000000e+00 1.0000000000e+00 2.0000000000e+00 1.5539650466e-01 -2.2476424126e-01 9.6194228631e-01 0.0000000000e+00
250 1.0000000000e+00 1.0000000000e+00 2.0000000000e+00 5.2143683700e-01 -3.5158866761e-02 -8.5256523452e-01 0.0000000000e+00
251 1.0000000000e+00 1.0000000000e+00 2.0000000000e+00 7.1756726404e-01 -6.8030227204e-01 1.4928509713e-01 0.0000000000e+00
252 1.0000000000e+00 1.0000000000e+00 2.0000000000e+00 4.3992291240e-01 6.4034240287e-01 -6.2962642752e-01 0.0000000000e+00
253 1.0000000000e+00 1.0000000000e+00 2.0000000000e+00 9.3324170092e-01 -1.6123669980e-01 3.2103372767e-01 0.0000000000e+00
254 1.0000000000e+00 1.0000000000e+00 2.0000000000e+00 8.8242900543e-01 4.7015758737e-01 -1.6458840127e-02 0.0000000000e+00
255 1.0000000000e+00 1.0000000000e+00 2.0000000000e+00 9.5859915984e-01 -1.9838116464e-01 2.0428549698e-01 0.0000000000e+00
256 1.0000000000e+00 1.0000000000e+00 2.0000000000e+00 2.3782932696e-01 5.7402726725e-01 7.8353679409e-01 -0.0000000000e+00
257 1.0000000000e+00 1.0000000000e+00 2.0000000000e+00 7.6508352984e-01 8.0053415324e-02 6.3893555470e-01 -0.0000000000e+00
258 1.0000000000e+00 1.0000000000e+00 2.0000000000e+00 8.7298461813e-01 4.7516230872e-01 -1.1008468054e-01 0.0000000000e+00
259 1.0000000000e+00 1.0000000000e+00 2.0000000000e+00 2.9028657669e-01 3.0945758461e-01 9.0552178700e-01 -0.0000000000e+00
260 1.0000000000e+00 1.0000000000e+00 2.0000000000e+00 9.6475019901e-01 -1.4686768004e-01 -2.1837339140e-01 0.0000000000e+00
261 1.0000000000e+00 1.0000000000e+00 2.0000000000e+00 7.4075571725e-01 6.4735992559e-01 -1.7946056421e-01 0.0000000000e+00
262 1.0000000000e+00 1.0000000000e+00 2.0000000000e+00 5.4161137008e-01 8.0271013992e-01 2.4962683163e-01 -0.0000000000e+00
263 1.0000000000e+00 1.0000000000e+00 2.0000000000e+00 4.3118349343e-01 4.3583498677e-01 -7.9001813859e-01 0.0000000000e+00
264 1.0000000000e+00 1.0000000000e+00 2.0000000000e+00 8.6581860973e-01 -4.7354048732e-01 -1.6160922594e-01 0.0000000000e+00
265 1.0000000000e+00 1.0000000000e+00 2.0000000000e+00 6.6865024545e-01 5.3430562664e-02 7.4165492261e-01 -0.0000000000e+00
266 1.0000000000e+00 1.0000000000e+00 2.0000000000e+00 7.5249487871e-01 6.4580881291e-01 1.2916049974e-01 -0.0000000000e+00
267 1.0000000000e+00 1.0000000000e+00 2.0000000000e+00 6.8548168467e-01 1.6261490468e-01 7.0969800109e-01 -0.0000000000e+00
268 1.0000000000e+00 1.0000000000e+00 2.0000000000e+00 9.6441875103e-01 2.6345465518e-01 -2.2093377161e-02 0.0000000000e+00
269 1.0000000000e+00 1.0000000000e+00 2.0000000000e+00 8.3839351208e-01 3.4964679806e-01 -4.1814284105e-01 0.0000000000e+00
270 1.0000000000e+00 1.0000000000e+00 2.0000000000e+00 7.8223337744e-01 2.8156219921e-01 -5.5572805507e-01 0.0000000000e+00
271 1.0000000000e+00 1.0000000000e+00 2.0000000000e+00 8.9569363695e-01 1.8999367698e-01 4.0203894268e-01 -0.0000000000e+00
272 1.0000000000e+00 1.0000000000e+00 2.0000000000e+00 4.6364332088e-01 -7.2071444287e-01 -5.1536934604e-01 0.0000000000e+00
273 1.0000000000e+00 1.0000000000e+00 2.0000000000e+00 8.0450777376e-01 3.4493143640e-01 -4.8351788607e-01 0.0000000000e+00
274 1.0000000000e+00 1.0000000000e+00 2.0000000000e+00 5.9580537429e-01 8.0290370155e-01 -1.9015835627e-02 0.0000000000e+00
275 1.0000000000e+00 1.0000000000e+00 2.0000000000e+00 8.1261904968e-01 4.5629498529e-01 3.6255367395e-01 -0.0000000000e+00
276 1.0000000000e+00 1.0000000000e+00 2.0000000000e+00 5.5031212649e-01 -5.5287583858e-01 6.2568751830e-01 0.0000000000e+00
277 1.0000000000e+00 1.0000000000e+00 2.0000000000e+00 8.3834514586e-01 -3.7467130744e-02 5.4385074288e-01 0.0000000000e+00
278 1.0000000000e+00 1.0000000000e+00 2.0000000000e+00 2.2949694486e-01 5.9885827658e-01 -7.6726782604e-01 0.0000000000e+00
279 1.0000000000e+00 1.0000000000e+00 2.0000000000e+00 1.7850022056e-01 7.5985828590e-01 -6.2510243689e-01 0.0000000000e+00
280 1.0000000000e+00 1.0000000000e+00 2.0000000000e+00 8.3500578423e-01 -2.9412100701e-01 4.6503566911e-01 0.0000000000e+00
281 1.0000000000e+00 1.0000000000e+00 2.0000000000e+00 8.7034870588e-01 -4.0180558147e-01 -2.8468474648e-01 0.0000000000e+00
282 1.0000000000e+00 1.0000000000e+00 2.0000000000e+00 8.8005948902e-01 -5.7854356840e-02 4.7132596913e-01 0.0000000000e+00
283 1.0000000000e+00 1.0000000000e+00 2.0000000000e+00 6.2774124281e-01 -7.5948044158e-01 1.7067627527e-01 0.0000000000e+00
284 1.0000000000e+00 1.0000000000e+00 2.0000000000e+00 1.1095579893e-01 9.8767211826e-01 1.1042009551e-01 -0.0000000000e+00
285 1.0000000000e+00 1.0000000000e+00 2.0000000000e+00 8.5009214219e-01 4.9076530333e-01 -1.9103080071e-01 0.0000000000e+00
286 1.0000000000e+00 1.0000000000e+00 2.0000000000e+00 6.9476920334e-01 6.9788969130e-01 -1.7391300375e-01 0.0000000000e+00
287 1.0000000000e+00 1.0000000000e+00 2.0000000000e+00 9.1706057054e-02 -6.3272319500e-02 9.9377392433e-01 0.0000000000e+00
288 1.0000000000e+00 1.0000000000e+00 2.0000000000e+00 6.3239093942e-01 4.0683085297e-02 -7.7358036836e-01 0.0000000000e+00
289 1.0000000000e+00 1.0000000000e+00 2.0000000000e+00 4.5594107538e-01 -8.8758000429e-01 -6.5722688436e-02 0.0000000000e+00
290 1.0000000000e+00 1.0000000000e+00 2.0000000000e+00 5.6344668495e-01 5.1883287189e-01 6.4291545654e-01 -0.0000000000e+00
291 1.0000000000e+00 1.0000000000e+00 2.0000000000e+00 6.5753921020e-01 4.9737771780e-02 -7.5177678941e-01 0.0000000000e+00
292 1.0000000000e+00 1.0000000000e+00 2.0000000000e+00 6.1991297297e-01 6.1975599253e-01 -4.8125919801e-01 0.0000000000e+00
293 1.0000000000e+00 1.0000000000e+00 2.0000000000e+00 5.5485075672e-01 5.2852773935e-01 6.4249440971e-01 -0.0000000000e+00
294 1.0000000000e+00 1.0000000000e+00 2.0000000000e+00 8.5511792038e-01 -5.0761167380e-01 1.0537424196e-01 0.0000000000e+00
295 1.0000000000e+00 1.0000000000e+00 2.0000000000e+00 8.1768571226e-01 7.7254780659e-02 5.7045751361e-01 -0.0000000000e+00
296 1.0000000000e+00 1.0000000000e+00 2.0000000000e+00 9.0124084031e-01 2.0502382037e-01 3.8174622571e-01 -0.0000000000e+00
297 1.0000000000e+00 1.0000000000e+00 2.0000000000e+00 6.4066605825e-01 -5.4119550062e-01 -5.4465992318e-01 0.0000000000e+00
298 1.0000000000e+00 1.0000000000e+00 2.0000000000e+00 9.8508357353e-01 -1.3130119475e-01 1.1122207250e-01 0.0000000000e+00
299 1.0000000000e+00 1.0000000000e+00 2.0000000000e+00 4.3975209375e-01 -1.6428875363e-01 -8.8296506243e-01 0.0000000000e+00
300 1.0000000000e+00 1.0000000000e+00 2.0000000000e+00 8.8012883758e-01 1.2312624386e-01 4.5849008422e-01 -0.0000000000e+00
301 1.0000000000e+00 1.0000000000e+00 2.0000000000e+00 8.5810678039e-01 3.0839147817e-01 -4.1054530766e-01 0.0000000000e+00
302 1.0000000000e+00 1.0000000000e+00 2.0000000000e+00 9.9654383416e-01 -4.8390515959e-02 6.7518475727e-02 0.0000000000e+00
303 1.0000000000e+00 1.0000000000e+00 2.0000000000e+00 7.0219369168e-01 -4.0486032706e-01 -5.8567237850e-01 0.0000000000e+00
304 1.0000000000e+00 1.0000000000e+00 2.0000000000e+00 3.7561957694e-01 8.8102789173e-02 9.2257673500e-01 -0.0000000000e+00
305 1.0000000000e+00 1.0000000000e+00 2.0000000000e+00 6.3935150611e-01 6.5730086508e-01 3.9898023058e-01 -0.0000000000e+00
306 1.0000000000e+00 1.0000000000e+00 2.0000000000e+00 1.3253650189e-01 -8.4561255316e-01 -5.1708170110e-01 0.0000000000e+00
307 1.0000000000e+00 1.0000000000e+00 2.0000000000e+00 7.1814034470e-01 7.1256944066e-02 6.9224048800e-01 -0.0000000000e+00
308 1.0000000000e+00 1.0000000000e+00 2.0000000000e+00 1.5074013024e-01 8.9619253532e-01 -4.1727251619e-01 0.0000000000e+00
309 1.0000000000e+00 1.0000000000e+00 2.0000000000e+00 5.8077877462e-01 -3.5630871237e-02 8.1328128957e-01 0.0000000000e+00
310 1.0000000000e+00 1.0000000000e+00 2.0000000000e+00 4.1286491833e-01 9.0442628074e-01 -1.0749726466e-01 0.0000000000e+00
311 1.0000000000e+00 1.0000000000e+00 2.0000000000e+00 5.8385987711e-01 7.9605460102e-01 -1.5938856955e-01 0.0000000000e+00
312 1.0000000000e+00 1.0000000000e+00 2.0000000000e+00 5.8615925142e-01 2.2146687002e-01 -7.7933930830e-01 0.0000000000e+00
313 1.0000000000e+00 1.0000000000e+00 2.0000000000e+00 9.7328330374e-01 -1.8711457585e-01 1.3307045563e-01 0.0000000000e+00
314 1.0000000000e+00 1.0000000000e+00 2.0000000000e+00 7.9458690080e-01 3.3605285081e-01 -5.0566801217e-01 0.0000000000e+00
315 1.0000000000e+00 1.0000000000e+00 2.0000000000e+00 4.8474106309e-01 8.7417277596e-01 2.9121461519e-02 -0.0000000000e+00
316 1.0000000000e+00 1.0000000000e+00 2.0000000000e+00 7.2967818087e-01 5.4560514678e-02 6.8161052120e-01 -0.0000000000e+00
317 1.0000000000e+00 1.0000000000e+00 2.0000000000e+00 9.0538869846e-01 -2.9063276072e-01 -3.0952205592e-01 0.0000000000e+00
318 1.0000000000e+00 1.0000000000e+00 2.0000000000e+00 6.4028583205e-01 -1.2575745516e-01 -7.5777246965e-01 0.0000000000e+00
319 1.0000000000e+00 1.0000000000e+00 2.0000000000e+00 2.4212749580e-01 -4.2644858624e-01 8.7150208208e-01 0.0000000000e+00
320 1.0000000000e+00 1.0000000000e+00 2.0000000000e+00 7.3601470992e-01 2.0518660914e-01 -6.4512076560e-01 0.0000000000e+00
321 1.0000000000e+00 1.0000000000e+00 2.0000000000e+00 9.3971094499e-01 -2.0811231438e-01 -2.7135328352e-01 0.0000000000e+00
322 1.0000000000e+00 1.0000000000e+00 2.0000000000e+00 6.4166560788e-01 -3.9525840443e-01 6.5729448605e-01 0.0000000000e+00
323 1.0000000000e+00 1.0000000000e+00 2.0000000000e+00 7.9767924885e-01 4.3947323855e-01 -4.1300252851e-01 0.0000000000e+00
324 1.0000000000e+00 1.0000000000e+00 2.0000000000e+00 8.3383708879e-01 -2.6814993601e-01 -4.8250525508e-01 0.0000000000e+00
325 1.0000000000e+00 1.0000000000e+00 2.0000000000e+00 6.2227704371e-01 5.9714716723e-01 5.0614873459e-01 -0.0000000000e+00
326 1.0000000000e+00 1.0000000000e+00 2.0000000000e+00 6.9633029233e-01 2.6304019926e-01 6.6778288204e-01 -0.0000000000e+00
327 1.0000000000e+00 1.0000000000e+00 2.0000000000e+00 9.3889438807e-01 -1.0885167318e-01 3.2654041296e-01 0.0000000000e+00
328 1.0000000000e+00 1.0000000000e+00 2.0000000000e+00 8.3753050829e-01 -2.8762407562e-01 -4.6455897237e-01 0.0000000000e+00
329 1.0000000000e+00 1.0000000000e+00 2.0000000000e+00 9.9843060969e-01 5.5858710616e-02 4.0152322424e-03 -0.0000000000e+00
330 1.0000000000e+00 1.0000000000e+00 2.0000000000e+00 9.8820907494e-01 1.4258460245e-01 -5.5789383889e-02 0.0000000000e+00
331 1.0000000000e+00 1.0000000000e+00 2.0000000000e+00 4.5047396393e-01 5.5587909406e-01 6.9862124260e-01 -0.0000000000e+00
332 1.0000000000e+00 1.0000000000e+00 2.0000000000e+00 7.7184924452e-01 1.0743700317e-01 -6.2666261583e-01 0.0000000000e+00
333 1.0000000000e+00 1.0000000000e+00 2.0000000000e+00 3.0805416178e-01 -9.4239817819e-01 1.3033920039e-01 0.0000000000e+00
334 1.0000000000e+00 1.0000000000e+00 2.0000000000e+00 4.7707803808e-01 8.5933098280e-01 -1.8424659452e-01 0.0000000000e+00
335 1.0000000000e+00 1.0000000000e+00 2.0000000000e+00 9.4963868132e-01 -2.5823396719e-01 -1.7748688158e-01 0.0000000000e+00
336 1.0000000000e+00 1.0000000000e+00 2.0000000000e+00 6.7827130332e-01 2.0153205108e-01 7.0663489262e-01 -0.0000000000e+00
337 1.0000000000e+00 1.0000000000e+00 2.0000000000e+00 1.1985141042e-01 7.4621920336e-01 6.5482252555e-01 -0.0000000000e+00
338 1.0000000000e+00 1.0000000000e+00 2.0000000000e+00 2.3692214135e-01 -8.1129895060e-02 -9.6813523800e-01 0.0000000000e+00
339 1.0000000000e+00 1.0000000000e+00 2.0000000000e+00 7.0140616724e-01 1.6906588190e-01 6.9242047640e-01 -0.0000000000e+00
340 1.0000000000e+00 1.0000000000e+00 2.0000000000e+00 2.1211605138e-01 -8.6388572579e-01 4.5684596258e-01 0.0000000000e+00
341 1.0000000000e+00 1.0000000000e+00 2.0000000000e+00 8.7885348044e-01 -4.6342911015e-01 -1.1335792773e-01 0.0000000000e+00
342 1.0000000000e+00 1.0000000000e+00 2.0000000000e+00 9.0121779857e-01 -1.9867801609e-01 -3.8514091637e-01 0.0000000000e+00
343 1.0000000000e+00 1.0000000000e+00 2.0000000000e+00 9.7557973398e-01 -2.0333671454e-01 -8.3056385443e-02 0.0000000000e+00
344 1.0000000000e+00 1.0000000000e+00 2.0000000000e+00 9.8694543353e-01 -1.1619738185e-01 1.1152075900e-01 0.0000000000e+00
345 1.0000000000e+00 1.0000000000e+00 2.0000000000e+00 3.3330881338e-01 1.7603126308e-01 9.2623875396e-01 -0.0000000000e+00
346 1.0000000000e+00 1.0000000000e+00 2.0000000000e+00 8.5618491439e-01 -9.0557710500e-02 5.0867149855e-01 0.0000000000e+00
347 1.0000000000e+00 1.0000000000e+00 2.0000000000e+00 9.0153610873e-01 1.0453411386e-01 -4.1988720353e-01 0.0000000000e+00
348 1.0000000000e+00 1.0000000000e+00 2.0000000000e+00 9.0038723446e-01 -4.3083340753e-01 -6.0707519943e-02 0.0000000000e+00
349 1.0000000000e+00 1.0000000000e+00 2.0000000000e+00 3.3278505282e-01 2.0051404221e-01 -9.2143813004e-01 0.0000000000e+00
350 1.0000000000e+00 1.0000000000e+00 2.0000000000e+00 8.4494091245e-01 -2.5176635621e-01 -4.7189888361e-01 0.0000000000e+00
351 1.0000000000e+00 1.0000000000e+00 2.0000000000e+00 7.8532800709e-01 -3.4413624159e-01 -5.1461652568e-01 0.0000000000e+00
352 1.0000000000e+00 1.0000000000e+00 2.0000000000e+00 8.5348830109e-01 5.1420752138e-01 -8.4547884955e-02 0.0000000000e+00
353 1.0000000000e+00 1.0000000000e+00 2.0000000000e+00 2.1745249518e-01 9.7376463390e-01 -6.7058557246e-02 0.0000000000e+00
354 1.0000000000e+00 1.0000000000e+00 2.0000000000e+00 5.7935255192e-01 6.8410835220e-01 4.4310989949e-01 -0.0000000000e+00
355 1.0000000000e+00 1.0000000000e+00 2.0000000000e+00 7.7716470298e-01 6.1420271401e-01 1.3700383405e-01 -0.0000000000e+00
356 1.0000000000e+00 1.0000000000e+00 2.0000000000e+00 7.0243919213e-01 -5.0494011822e-01 5.0161205963e-01 0.0000000000e+00
357 1.0000000000e+00 1.0000000000e+00 2.0000000000e+00 8.6879546630e-01 3.8091620053e-01 -3.1638155115e-01 0.0000000000e+00
358 1.0000000000e+00 1.0000000000e+00 2.0000000000e+00 7.9987858320e-01 -4.7044770680e-01 -3.7265695661e-01 0.0000000000e+00
359 1.0000000000e+00 1.0000000000e+00 2.0000000000e+00 7.5656638583e-01 4.3919927816e-01 4.8447012075e-01 -0.0000000000e+00
360 1.0000000000e+00 1.0000000000e+00 2.0000000000e+00 7.7034434919e-01 -6.0043134083e-01 -2.1459680479e-01 0.0000000000e+00
361 1.0000000000e+00 1.0000000000e+00 2.0000000000e+00 1.9869607019e-01 3.6965014073e-01 9.0767761080e-01 -0.0000000000e+00
362 1.0000000000e+00 1.0000000000e+00 2.0000000000e+00 9.7873435406e-01 -8.0639486662e-02 1.8861690640e-01 0.0000000000e+00
363 1.0000000000e+00 1.0000000000e+00 2.0000000000e+00 7.3350239844e-01 -9.5162695842e-02 6.7299204513e-01 0.0000000000e+00
364 1.0000000000e+00 1.0000000000e+00 2.0000000000e+00 4.5832505553e-01 2.9339334420e-01 -8.3896274592e-01 0.0000000000e+00
365 1.0000000000e+00 1.0000000000e+00 2.0000000000e+00 8.8883383613e-01 3.0557711641e-01 -3.4146308391e-01 0.0000000000e+00
366 1.0000000000e+00 1.0000000000e+00 2.0000000000e+00 3.5854598719e-01 9.3344306356e-01 -1.1349985208e-02 0.0000000000e+00
367 1.0000000000e+00 1.0000000000e+00 2.0000000000e+00 7.4572692784e-02 -9.0570191967e-01 -4.1730438076e-01 0.0000000000e+00
368 1.0000000000e+00 1.0000000000e+00 2.0000000000e+00 4.2372558724e-01 2.2335848588e-01 -8.7781980697e-01 0.0000000000e+00
369 1.0000000000e+00 1.0000000000e+00 2.0000000000e+00 6.7398817328e-01 2.7039431285e-01 6.8747862356e-01 -0.0000000000e+00
370 1.0000000000e+00 1.0000000000e+00 2.0000000000e+00 3.2197349152e-01 -2.4566073644e-01 9.1432153717e-01 0.0000000000e+00
371 1.0000000000e+00 1.0000000000e+00 2.0000000000e+00 9.3780230211e-01 -9.6407808168e-03 -3.4703587350e-01 0.0000000000e+00
372 1.0000000000e+00 1.0000000000e+00 2.0000000000e+00 6.0359202891e-01 2.4546231079e-01 7.5856767439e-01 -0.0000000000e+00
373 1.0000000000e+00 1.0000000000e+00 2.0000000000e+00 8.8877215455e-01 4.5214607372e-01 7.5153079205e-02 -0.0000000000e+00
374 1.0000000000e+00 1.0000000000e+00 2.0000000000e+00 7.6081703258e-01 3.2828324862e-02 -6.4813559077e-01 0.0000000000e+00
375 1.0000000000e+00 1.0000000000e+00 2.0000000000e+00 3.5071207897e-01 9.3647985585e-01 -2.5528928877e-03 0.0000000000e+00
376 1.0000000000e+00 1.0000000000e+00 2.0000000000e+00 2.4427392644e-01 -3.6369484957e-01 -8.9891952101e-01 0.0000000000e+00
377 1.0000000000e+00 1.0000000000e+00 2.0000000000e+00 8.6609907896e-01 -4.9400276592e-01 7.6378352214e-02 0.0000000000e+00
378 1.0000000000e+00 1.0000000000e+00 2.0000000000e+00 2.3956939881e-01 3.1860577477e-01 -9.1711333184e-01 0.0000000000e+00
379 1.0000000000e+00 1.0000000000e+00 2.0000000000e+00 5.4526471030e-01 -5.3268112112e-01 6.4725359706e-01 0.0000000000e+00
380 1.0000000000e+00 1.0000000000e+00 2.0000000000e+00 9.9114500765e-01 -1.3256111073e-01 -7.6893262376e-03 0.0000000000e+00
381 1.0000000000e+00 1.0000000000e+00 2.0000000000e+00 8.3731144240e-01 -5.1276299507e-01 -1.8969359325e-01 0.0000000000e+00
382 1.0000000000e+00 1.0000000000e+00 2.0000000000e+00 5.9278919954e-01 2.4013592775e-01 -7.6872342303e-01 0.0000000000e+00
383 1.0000000000e+00 1.0000000000e+00 2.0000000000e+00 8.3052112100e-01 1.5166448201e-01 5.3594081061e-01 -0.0000000000e+00
384 1.0000000000e+00 1.0000000000e+00 2.0000000000e+00 9.3367466385e-01 -2.6152891177e-01 2.4465128324e-01 0.0000000000e+00
385 1.0000000000e+00 1.0000000000e+00 2.0000000000e+00 8.5002286644e-01 3.4706483773e-01 3.9624124589e-01 -0.0000000000e+00
386 1.0000000000e+00 1.0000000000e+00 2.0000000000e+00 9.2628707744e-01 3.7408091839e-01 -4.5340011715e-02 0.0000000000e+00
387 1.0000000000e+00 1.0000000000e+00 2.0000000000e+00 5.6797183159e-01 5.1016993830e-01 6.4585960748e-01 -0.0000000000e+00
388 1.0000000000e+00 1.0000000000e+00 2.0000000000e+00 4.9459708849e-01 3.9452117142e-01 -7.7442027696e-01 0.0000000000e+00
389 1.0000000000e+00 1.0000000000e+00 2.0000000000e+00 6.0119295771e-01 4.9491948168e-01 -6.2739280698e-01 0.0000000000e+00
390 1.0000000000e+00 1.0000000000e+00 2.0000000000e+00 4.2835044502e-01 -3.7480095903e-01 -8.2221660003e-01 0.0000000000e+00
391 1.0000000000e+00 1.0000000000e+00 2.0000000000e+00 9.4255278741e-01 -6.2379331490e-02 3.2818144669e-01 0.0000000000e+00
392 1.0000000000e+00 1.0000000000e+00 2.0000000000e+00 4.4301167942e-01 4.6968945684e-01 7.6363110598e-01 -0.0000000000e+00
393 1.0000000000e+00 1.0000000000e+00 2.0000000000e+00 2.9222285124e-01 -9.3630677109e-01 1.9477021238e-01 0.0000000000e+00
394 1.0000000000e+00 1.0000000000e+00 2.0000000000e+00 3.5051980116e-01 -3.6777972956e-02 -9.3583291762e-01 0.0000000000e+00
395 1.0000000000e+00 1.0000000000e+00 2.0000000000e+00 9.0795099902e-01 3.1628488171e-01 -2.7493427757e-01 0.0000000000e+00
396 1.0000000000e+00 1.0000000000e+00 2.0000000000e+00 4.0451363138e-01 4.9040481331e-01 -7.7192735481e-01 0.0000000000e+00
397 1.0000000000e+00 1.0000000000e+00 2.0000000000e+00 8.8133192457e-01 -1.3528219797e-01 -4.5271709228e-01 0.0000000000e+00
398 1.0000000000e+00 1.0000000000e+00 2.0000000000e+00 5.7801164495e-01 9.1358921935e-02 8.1089832019e-01 -0.0000000000e+00
399 1.0000000000e+00 1.0000000000e+00 2.0000000000e+00 2.1557491735e-01 9.7344393277e-01 -7.7034828265e-02 0.0000000000e+00
400 1.0000000000e+00 1.0000000000e+00 2.0000000000e+00 7.4387770544e-01 6.1527407295e-01 -2.6092867705e-01 0.0000000000e+00
401 1.0000000000e+00 1.0000000000e+00 2.0000000000e+00 9.1037277978e-01 -2.4339497786e-01 3.3463455679e-01 0.0000000000e+00
402 1.0000000000e+00 1.0000000000e+00 2.0000000000e+00 9.8485812184e-01 5.0684945329e-02 -1.6578756338e-01 0.0000000000e+00
403 1.0000000000e+00 1.0000000000e+00 2.0000000000e+00 9.1993672500e-01 -2.9832954332e-01 -2.5439321058e-01 0.0000000000e+00
404 1.0000000000e+00 1.0000000000e+00 2.0000000000e+00 9.8135993946e-01 -7.1002412233e-02 -1.7858142872e-01 0.0000000000e+00
405 1.0000000000e+00 1.0000000000e+00 2.0000000000e+00 8.1953221164e-01 -1.9066882172e-01 5.4038167485e-01 0.0000000000e+00
406 1.0000000000e+00 1.0000000000e+00 2.0000000000e+00 8.3056488494e-01 2.6666834180e-01 4.8892736412e-01 -0.0000000000e+00
407 1.0000000000e+00 1.0000000000e+00 2.0000000000e+00 8.3128391444e-01 -5.5537751190e-01 2.2866413464e-02 0.0000000000e+00
408 1.0000000000e+00 1.0000000000e+00 2.0000000000e+00 9.5003944792e-01 2.0166080655e-01 2.3823930512e-01 -0.0000000000e+00
409 1.0000000000e+00 1.0000000000e+00 2.0000000000e+00 3.7362474696e-01 -4.5124912666e-01 8.1041888807e-01 0.0000000000e+00
410 1.0000000000e+00 1.0000000000e+00 2.0000000000e+00 9.6956155329e-01 -2.1237881964e-01 1.2184264999e-01 0.0000000000e+00
411 1.0000000000e+00 1.0000000000e+00 2.0000000000e+00 4.1834608253e-01 8.2381184818e-01 -3.8251874990e-01 0.0000000000e+00
412 1.0000000000e+00 1.0000000000e+00 2.0000000000e+00 7.6295120467e-01 -3.7810460567e-01 5.2434946979e-01 0.0000000000e+00
413 1.0000000000e+00 1.0000000000e+00 2.0000000000e+00 7.0507420573e-01 -1.4039736241e-01 -6.9509635666e-01 0.0000000000e+00
414 1.0000000000e+00 1.0000000000e+00 2.0000000000e+00 2.7815036672e-01 -5.3735603361e-02 9.5903329370e-01 0.0000000000e+00
415 1.0000000000e+00 1.0000000000e+00 2.0000000000e+00 4.0985872425e-01 -2.6784453280e-01 8.7193757369e-01 0.0000000000e+00
416 1.0000000000e+00 1.0000000000e+00 2.0000000000e+00 1.2890949970e-01 -5.4865121994e-01 8.2605337584e-01 0.0000000000e+00
417 1.0000000000e+00 1.0000000000e+00 2.0000000000e+00 2.8353892978e-01 3.4111670080e-01 8.9623940537e-01 -0.0000000000e+00
418 1.0000000000e+00 1.0000000000e+00 2.0000000000e+00 6.1481302158e-01 -6.7290206777e-01 4.1134870326e-01 0.0000000000e+00
419 1.0000000000e+00 1.0000000000e+00 2.0000000000e+00 6.8907103555e-01 7.1387117340e-01 -1.2477602236e-01 0.0000000000e+00
420 1.0000000000e+00 1.0000000000e+00 2.0000000000e+00 7.5769528527e-01 -9.1669839721e-04 6.5260785649e-01 0.0000000000e+00
421 1.0000000000e+00 1.0000000000e+00 2.0000000000e+00 9.8515738868e-01 -1.6919665117e-01 -2.8938085006e-02 0.0000000000e+00
422 1.0000000000e+00 1.0000000000e+00 2.0000000000e+00 9.4476266238e-01 3.1604435597e-01 8.6830160827e-02 -0.0000000000e+00
423 1.0000000000e+00 1.0000000000e+00 2.0000000000e+00 7.3805752400e-01 -3.2824563195e-02 6.7393889880e-01 0.0000000000e+00
424 1.0000000000e+00 1.0000000000e+00 2.0000000000e+00 9.7862529961e-01 1.6878721108e-01 1.1748787318e-01 -0.0000000000e+00
425 1.0000000000e+00 1.0000000000e+00 2.0000000000e+00 5.5604746737e-01 -6.6728789060e-01 4.9551799674e-01 0.0000000000e+00
426 1.0000000000e+00 1.0000000000e+00 2.0000000000e+00 4.9807662418e-01 -4.9687642351e-01 7.1065708763e-01 0.0000000000e+00
427 1.0000000000e+00 1.0000000000e+00 2.0000000000e+00 6.5111053314e-01 -7.4113242606e-01 1.6363923942e-01 0.0000000000e+00
428 1.0000000000e+00 1.0000000000e+00 2.0000000000e+00 5.1049960845e-01 -3.4291307825e-01 -7.8854344873e-01 0.0000000000e+00
429 1.0000000000e+00 1.0000000000e+00 2.0000000000e+00 9.9003478621e-01 -1.3462808390e-01 -4.1308608296e-02 0.0000000000e+00
430 1.0000000000e+00 1.0000000000e+00 2.0000000000e+00 5.6176082301e-01 8.2626958369e-01 -4.1271694869e-02 0.0000000000e+00
431 1.0000000000e+00 1.0000000000e+00 2.0000000000e+00 9.0573740794e-01 2.8719650303e-01 3.1170164662e-01 -0.0000000000e+00
432 1.0000000000e+00 1.0000000000e+00 2.0000000000e+00 4.6022286736e-01 -8.0672243792e-02 -8.8413059071e-01 0.0000000000e+00
433 1.0000000000e+00 1.0000000000e+00 2.0000000000e+00 8.3348466475e-01 2.9934754786e-01 4.6442906801e-01 -0.0000000000e+00
434 1.0000000000e+00 1.0000000000e+00 2.0000000000e+00 4.9614563882e-01 8.2051526689e-01 -2.8389117966e-01 0.0000000000e+00
435 1.0000000000e+00 1.0000000000e+00 2.0000000000e+00 3.3841339203e-01 -3.0035744536e-01 -8.9177451248e-01 0.0000000000e+00
436 1.0000000000e+00 1.0000000000e+00 2.0000000000e+00 7.3294563490e-01 5.9382466755e-01 3.3190806030e-01 -0.0000000000e+00
437 1.0000000000e+00 1.0000000000e+00 2.0000000000e+00 8.5305590651e-01 5.0116141636e-01 -1.4537143851e-01 0.0000000000e+00
438 1.0000000000e+00 1.0000000000e+00 2.0000000000e+00 6.6865410342e-01 -3.3769625555e-01 -6.6246730407e-01 0.0000000000e+00
439 1.0000000000e+00 1.0000000000e+00 2.0000000000e+00 6.4056704894e-01 7.4736829808e-01 -1.7639297844e-01 0.0000000000e+00
440 1.0000000000e+00 1.0000000000e+00 2.0000000000e+00 4.6010559664e-01 -2.8904453187e-01 8.3949752742e-01 0.0000000000e+00
441 1.0000000000e+00 1.0000000000e+00 2.0000000000e+00 7.4894695302e-01 -6.5012596470e-01 -1.2811983291e-01 0.0000000000e+00
442 1.0000000000e+00 1.0000000000e+00 2.0000000000e+00 8.1768513195e-01 3.9169426691e-02 -5.7433159499e-01 0.0000000000e+00
443 1.0000000000e+00 1.0000000000e+00 2.0000000000e+00 9.7054154214e-01 8.2886711574e-02 -2.2622755804e-01 0.0000000000e+00
444 1.0000000000e+00 1.0000000000e+00 2.0000000000e+00 5.9311114969e-01 -8.0426593848e-01 3.7087252801e-02 0.0000000000e+00
445 1.0000000000e+00 1.0000000000e+00 2.0000000000e+00 8.8508782755e-01 4.2767401576e-01 1.8361501508e-01 -0.0000000000e+00
446 1.0000000000e+00 1.0000000000e+00 2.0000000000e+00 9.6750308040e-01 -2.5056000317e-01 -3.4021672946e-02 0.0000000000e+00
447 1.0000000000e+00 1.0000000000e+00 2.0000000000e+00 7.1091213464e-01 -6.9449174327e-01 1.1083842005e-01 0.0000000000e+00
448 1.0000000000e+00 1.0000000000e+00 2.0000000000e+00 7.4826831319e-01 4.2823221580e-01 -5.0666724862e-01 0.0000000000e+00
449 1.0000000000e+00 1.0000000000e+00 2.0000000000e+00 9.8351106680e-01 -1.4951659674e-01 1.0173872805e-01 0.0000000000e+00
450 1.0000000000e+00 1.0000000000e+00 2.0000000000e+00 8.4032891673e-01 -5.3407990708e-01 -9.2768338143e-02 0.0000000000e+00
451 1.0000000000e+00 1.0000000000e+00 2.0000000000e+00 5.2720892162e-01 6.4908794311e-01 5.4839364975e-01 -0.0000000000e+00
452 1.0000000000e+00 1.0000000000e+00 2.0000000000e+00 2.0285370552e-01 3.6046075122e-01 -9.1044957081e-01 0.0000000000e+00
453 1.0000000000e+00 1.0000000000e+00 2.0000000000e+00 9.3393638746e-01 3.0285433050e-01 1.8984751427e-01 -0.0000000000e+00
454 1.0000000000e+00 1.0000000000e+00 2.0000000000e+00 1.0160382846e-01 1.4409947106e-01 9.8433327917e-01 -0.0000000000e+00
455 1.0000000000e+00 1.0000000000e+00 2.0000000000e+00 6.0975718903e-01 7.9088290359e-01 -5.1965404173e-02 0.0000000000e+00
456 1.0000000000e+00 1.0000000000e+00 2.0000000000e+00 8.5166033040e-01 -4.2461639058e-01 3.0720612375e-01 0.0000000000e+00
457 1.0000000000e+00 1.0000000000e+00 2.0000000000e+00 9.2359378122e-01 -2.8355672716e-02 -3.8232248576e-01 0.0000000000e+00
458 1.0000000000e+00 1.0000000000e+00 2.0000000000e+00 9.1779859978e-01 7.0077999676e-02 3.9081300413e-01 -0.0000000000e+00
459 1.0000000000e+00 1.0000000000e+00 2.0000000000e+00 7.2603369660e-01 6.5021948372e-01 2.2380727065e-01 -0.0000000000e+00
460 1.0000000000e+00 1.0000000000e+00 2.0000000000e+00 9.7908807924e-01 1.5955945707e-01 1.2620345778e-01 -0.0000000000e+00
461 1.0000000000e+00 1.0000000000e+00 2.0000000000e+00 4.1192391711e-01 -6.9497650148e-01 5.8934399878e-01 0.0000000000e+00
462 1.0000000000e+00 1.0000000000e+00 2.0000000000e+00 5.5032776956e-01 -5.3413428573e-01 6.4174754448e-01 0.0000000000e+00
463 1.0000000000e+00 1.0000000000e+00 2.0000000000e+00 4.4465170553e-01 -8.3990466860e-01 -3.1119930660e-01 0.0000000000e+00
464 1.0000000000e+00 1.0000000000e+00 2.0000000000e+00 8.3310940159e-01 -4.2759015842e-01 -3.5084951390e-01 0.0000000000e+00
465 1.0000000000e+00 1.0000000000e+00 2.0000000000e+00 9.4998699444e-01 1.3097273662e-01 2.8349753555e-01 -0.0000000000e+00
466 1.0000000000e+00 1.0000000000e+00 2.0000000000e+00 4.6620148742e-01 -3.5383524394e-01 -8.1083709417e-01 0.0000000000e+00
467 1.0000000000e+00 1.0000000000e+00 2.0000000000e+00 7.7464366307e-01 5.3058816345e-01 3.4409794546e-01 -0.0000000000e+00
468 1.0000000000e+00 1.0000000000e+00 2.0000000000e+00 9.8540854529e-01 1.6155329873e-01 5.3577332311e-02 -0.0000000000e+00
469 1.0000000000e+00 1.0000000000e+00 2.0000000000e+00 9.0980097889e-01 -3.9422446523e-01 -1.2980466025e-01 0.0000000000e+00
470 1.0000000000e+00 1.0000000000e+00 2.0000000000e+00 8.1927690921e-01 -5.7096182007e-01 -5.2801004364e-02 0.0000000000e+00
471 1.0000000000e+00 1.0000000000e+00 2.0000000000e+00 6.9136895684e-01 -5.2351709136e-01 -4.9793455450e-01 0.0000000000e+00
472 1.0000000000e+00 1.0000000000e+00 2.0000000000e+00 8.3202284317e-01 1.0501368669e-01 -5.4471103720e-01 0.0000000000e+00
473 1.0000000000e+00 1.0000000000e+00 2.0000000000e+00 9.6481830276e-01 -1.0308040223e-01 -2.4186788403e-01 0.0000000000e+00
474 1.0000000000e+00 1.0000000000e+00 2.0000000000e+00 5.4641029395e-01 -7.5278986345e-01 3.6707385108e-01 0.0000000000e+00
475 1.0000000000e+00 1.0000000000e+00 2.0000000000e+00 7.7312219517e-01 4.8882764770e-01 4.0414057229e-01 -0.0000000000e+00
476 1.0000000000e+00 1.0000000000e+00 2.0000000000e+00 5.7355021587e-01 5.0025311708e-02 8.1764149727e-01 -0.0000000000e+00
477 1.0000000000e+00 1.0000000000e+00 2.0000000000e+00 8.8264588898e-01 4.2612315111e-01 -1.9838168954e-01 0.0000000000e+00
478 1.0000000000e+00 1.0000000000e+00 2.0000000000e+00 9.2721999275e-01 3.7359833823e-01 -2.6217679488e-02 0.0000000000e+00
479 1.0000000000e+00 1.0000000000e+00 2.0000000000e+00 5.4726599705e-01 5.4487462374e-01 6.3530431518e-01 -0.0000000000e+00
480 1.0000000000e+00 1.0000000000e+00 2.0000000000e+00 7.6938938686e-01 1.6650417236e-01 -6.1669792603e-01 0.0000000000e+00
481 1.0000000000e+00 1.0000000000e+00 2.0000000000e+00 9.0644815242e-01 -3.3330812287e-01 -2.5934039833e-01 0.0000000000e+00
482 1.0000000000e+00 1.0000000000e+00 2.0000000000e+00 2.6294321929e-01 -6.6180866741e-01 7.0204711464e-01 0.0000000000e+00
483 1.0000000000e+00 1.0000000000e+00 2.0000000000e+00 4.9571600090e-01 3.3791863174e-01 8.0004790155e-01 -0.0000000000e+00
484 1.0000000000e+00 1.0000000000e+00 2.0000000000e+00 7.9632931961e-01 -1.9466560183e-01 5.7268221396e-01 0.0000000000e+00
485 1.0000000000e+00 1.0000000000e+00 2.0000000000e+00 4.5483727271e-01 -8.6584807298e-01 2.0839906397e-01 0.0000000000e+00
486 1.0000000000e+00 1.0000000000e+00 2.0000000000e+00 3.9781754937e-01 -2.8147416540e-01 8.7322018508e-01 0.0000000000e+00
487 1.0000000000e+00 1.0000000000e+00 2.0000000000e+00 5.8630299183e-01 -4.5601153294e-01 -6.6955379440e-01 0.0000000000e+00
488 1.0000000000e+00 1.0000000000e+00 2.0000000000e+00 8.6590690353e-01 -1.8797728108e-01 4.6354047959e-01 0.0000000000e+00
489 1.0000000000e+00 1.0000000000e+00 2.0000000000e+00 3.7295240076e-01 -6.2011762839e-01 -6.9018883918e-01 0.0000000000e+00
490 1.0000000000e+00 1.0000000000e+00 2.0000000000e+00 2.4189110665e-01 3.4794238937e-01 -9.0577303239e-01 0.0000000000e+00
491 1.0000000000e+00 1.0000000000e+00 2.0000000000e+00 2.3329594329e-01 4.1241736916e-01 8.8061621405e-01 -0.0000000000e+00
492 1.0000000000e+00 1.0000000000e+00 2.0000000000e+00 5.9024044711e-01 -4.7972283623e-01 -6.4921661639e-01 0.0000000000e+00
493 1.0000000000e+00 1.0000000000e+00 2.0000000000e+00 6.5970211873e-01 -6.6431359577e-01 3.5139800940e-01 0.0000000000e+00
494 1.0000000000e+00 1.0000000000e+00 2.0000000000e+00 7.2174204981e-01 -6.9071635149e-01 -4.4713927532e-02 0.0000000000e+00
495 1.0000000000e+00 1.0000000000e+00 2.0000000000e+00 6.4119684175e-01 6.5909583369e-01 -3.9301309411e-01 0.0000000000e+00
496 1.0000000000e+00 1.0000000000e+00 2.0000000000e+00 8.0033318729e-01 -4.7452810737e-01 -3.6645581540e-01 0.0000000000e+00
497 1.0000000000e+00 1.0000000000e+00 2.0000000000e+00 5.4788572250e-01 1.1084146798e-02 8.3647975276e-01 -0.0000000000e+00
498 1.0000000000e+00 1.0000000000e+00 2.0000000000e+00 7.7962122815e-01 6.2218714077e-01 -7.1231330766e-02 0.0000000000e+00
499 1.0000000000e+00 1.0000000000e+00 2.0000000000e+00 9.8742893204e-01 -1.3862149242e-01 7.5948574825e-02 0.0000000000e+00
500 1.0000000000e+00 1.0000000000e+00 2.0000000000e+00 8.3071200042e-01 -5.2130141560e-01 1.9535200653e-01 0.0000000000e+00
501 1.0000000000e+00 1.0000000000e+00 2.0000000000e+00 8.4652519937e-01 3.0024820082e-01 -4.3959766234e-01 0.0000000000e+00
502 1.0000000000e+00 1.0000000000e+00 2.0000000000e+00 9.8152611591e-01 8.4485877542e-02 1.7166426621e-01 -0.0000000000e+00
503 1.0000000000e+00 1.0000000000e+00 2.0000000000e+00 9.7076444344e-01 -1.6546110257e-01 1.7389369997e-01 0.0000000000e+00
504 1.0000000000e+00 1.0000000000e+00 2.0000000000e+00 9.4257366862e-01 -1.9047089700e-01 2.7436420434e-01 0.0000000000e+00
505 1.0000000000e+00 1.0000000000e+00 2.0000000000e+00 7.6755867231e-01 2.8179918466e-01 5.7571078163e-01 -0.0000000000e+00
506 1.0000000000e+00 1.0000000000e+00 2.0000000000e+00 4.0626229682e-01 -7.0947580706e-01 5.7584288254e-01 0.0000000000e+00
507 1.0000000000e+00 1.0000000000e+00 2.0000000000e+00 7.0420818086e-01 -7.0066024608e-01 -1.1474344244e-01 0.0000000000e+00
508 1.0000000000e+00 1.0000000000e+00 2.0000000000e+00 7.4733659779e-01 5.1608199980e-01 4.1850612789e-01 -0.0000000000e+00
509 1.0000000000e+00 1.0000000000e+00 2.0000000000e+00 4.6057338717e-01 6.9515487260e-01 -5.5193465023e-01 0.0000000000e+00
510 1.0000000000e+00 1.0000000000e+00 2.0000000000e+00 7.0471279193e-01 -6.4786296662e-01 -2.8922907422e-01 0.0000000000e+00
511 1.0000000000e+00 1.0000000000e+00 2.0000000000e+00 3.4418941711e-01 -9.2924866472e-01 -1.3427793661e-01 0.0000000000e+00
512 1.0000000000e+00 1.0000000000e+00 2.0000000000e+00 2.6878073547e-01 -9.6140124952e-01 5.8860459260e-02 0.0000000000e+00
513 1.0000000000e+00 1.0000000000e+00 2.0000000000e+00 5.8178192777e-01 -8.0873479151e-01 8.6474421210e-02 0.0000000000e+00
514 1.0000000000e+00 1.0000000000e+00 2.0000000000e+00 7.6642258830e-01 5.1930457422e-01 3.7804652536e-01 -0.0000000000e+00
515 1.0000000000e+00 1.0000000000e+00 2.0000000000e+00 4.1173530137e-01 -6.7559270544e-01 6.1159507680e-01 0.0000000000e+00
516 1.0000000000e+00 1.0000000000e+00 2.0000000000e+00 4.6478784386e-01 5.6202326180e-01 -6.8417988380e-01 0.0000000000e+00
517 1.0000000000e+00 1.0000000000e+00 2.0000000000e+00 6.3233183942e-01 -5.9936593064e-01 -4.9083289014e-01 0.0000000000e+00
518 1.0000000000e+00 1.0000000000e+00 2.0000000000e+00 9.2799402098e-01 1.9989219542e-01 -3.1443633257e-01 0.0000000000e+00
519 1.0000000000e+00 1.0000000000e+00 2.0000000000e+00 3.9227120241e-01 3.3972233001e-01 -8.5481696418e-01 0.0000000000e+00
520 1.0000000000e+00 1.0000000000e+00 2.0000000000e+00 2.7874971619e-01 -4.0278547520e-01 -8.7181560934e-01 0.0000000000e+00
521 1.0000000000e+00 1.0000000000e+00 2.0000000000e+00 3.8589764228e-01 -1.0449515063e-01 9.1660448023e-01 0.0000000000e+00
522 1.0000000000e+00 1.0000000000e+00 2.0000000000e+00 9.0942280296e-01 -4.0173704817e-01 1.0750585833e-01 0.0000000000e+00
523 1.0000000000e+00 1.0000000000e+00 2.0000000000e+00 2.6358950297e-01 -9.2769758951e-01 2.6438183813e-01 0.0000000000e+00
524 1.0000000000e+00 1.0000000000e+00 2.0000000000e+00 7.7502351423e-01 -5.4285913887e-01 -3.2348494204e-01 0.0000000000e+00
525 1.0000000000e+00 1.0000000000e+00 2.0000000000e+00 2.6962503609e-01 -9.6115223405e-01 -5.9065411942e-02 0.0000000000e+00
526 1.0000000000e+00 1.0000000000e+00 2.0000000000e+00 5.4722063829e-01 -5.7695911453e-01 6.0635612736e-01 0.0000000000e+00
527 1.0000000000e+00 1.0000000000e+00 2.0000000000e+00 4.4147628863e-01 1.3485755162e-01 -8.8708067691e-01 0.0000000000e+00
528 1.0000000000e+00 1.0000000000e+00 2.0000000000e+00 5.2728555800e-01 5.9264699464e-01 -6.0888379849e-01 0.0000000000e+00
529 1.0000000000e+00 1.0000000000e+00 2.0000000000e+00 5.7052296982e-01 -3.4309147172e-01 7.4618481822e-01 0.0000000000e+00
530 1.0000000000e+00 1.0000000000e+00 2.0000000000e+00 8.6905295988e-01 -2.3577804475e-01 4.3492029907e-01 0.0000000000e+00
531 1.0000000000e+00 1.0000000000e+00 2.0000000000e+00 4.1047356269e-01 9.0783665938e-01 -8.5697457497e-02 0.0000000000e+00
532 1.0000000000e+00 1.0000000000e+00 2.0000000000e+00 6.2098444591e-01 -7.3690626944e-02 7.8035120903e-01 0.0000000000e+00
533 1.0000000000e+00 1.0000000000e+00 2.0000000000e+00 6.6882679071e-01 -3.2515413626e-01 -6.6853983554e-01 0.0000000000e+00
534 1.0000000000e+00 1.0000000000e+00 2.0000000000e+00 5.8439419521e-01 5.6398105534e-01 5.8344562199e-01 -0.0000000000e+00
535 1.0000000000e+00 1.0000000000e+00 2.0000000000e+00 8.7568016328e-01 4.5407576220e-01 -1.6431510526e-01 0.0000000000e+00
536 1.0000000000e+00 1.0000000000e+00 2.0000000000e+00 8.0916862770e-01 -3.6251962277e-01 -4.6241286213e-01 0.0000000000e+00
537 1.0000000000e+00 1.0000000000e+00 2.0000000000e+00 9.8010721125e-01 9.7592135518e-02 1.7281675131e-01 -0.0000000000e+00
538 1.0000000000e+00 1.0000000000e+00 2.0000000000e+00 5.5315745343e-01 7.3512660865e-01 -3.9192563194e-01 0.0000000000e+00
539 1.0000000000e+00 1.0000000000e+00 2.0000000000e+00 5.2942747338e-01 -1.6397141545e-02 8.4819672493e-01 0.0000000000e+00
540 1.0000000000e+00 1.0000000000e+00 2.0000000000e+00 6.3843512208e-01 -4.8446281759e-01 -5.9807723018e-01 0.0000000000e+00
541 1.0000000000e+00 1.0000000000e+00 2.0000000000e+00 2.3895046322e-01 7.1385975787e-01 -6.5826052762e-01 0.0000000000e+00
542 1.0000000000e+00 1.0000000000e+00 2.0000000000e+00 9.9612768822e-01 6.9114135280e-02 5.4340271201e-02 -0.0000000000e+00
543 1.0000000000e+00 1.0000000000e+00 2.0000000000e+00 6.9408786158e-01 -7.1760838879e-01 -5.7273386010e-02 0.0000000000e+00
544 1.0000000000e+00 1.0000000000e+00 2.0000000000e+00 6.3937704603e-01 -7.6505655325e-01 -7.6716773570e-02 0.0000000000e+00
545 1.0000000000e+00 1.0000000000e+00 2.0000000000e+00 9.7807261495e-01 -1.9841867014e-01 6.3277098663e-02 0.0000000000e+00
546 1.0000000000e+00 1.0000000000e+00 2.0000000000e+00 7.3336817637e-01 -1.4965853117e-01 6.6315416151e-01 0.0000000000e+00
547 1.0000000000e+00 1.0000000000e+00 2.0000000000e+00 2.6207888839e-01 4.4121721938e-01 -8.5827852215e-01 0.0000000000e+00
548 1.0000000000e+00 1.0000000000e+00 2.0000000000e+00 4.0706580667e-01 5.3782055990e-01 7.3827262877e-01 -0.0000000000e+00
549 1.0000000000e+00 1.0000000000e+00 2.0000000000e+00 9.5919655669e-01 -7.2114335905e-02 2.7338889552e-01 0.0000000000e+00
550 1.0000000000e+00 1.0000000000e+00 2.0000000000e+00 9.8622836871e-01 -3.0216366372e-02 -1.6260558401e-01 0.0000000000e+00
551 1.0000000000e+00 1.0000000000e+00 2.0000000000e+00 3.6998451309e-01 -9.2009931155e-01 -1.2856405779e-01 0.0000000000e+00
552 1.0000000000e+00 1.0000000000e+00 2.0000000000e+00 5.5816963339e-01 -3.2373625476e-01 -7.6396433013e-01 0.0000000000e+00
553 1.0000000000e+00 1.0000000000e+00 2.0000000000e+00 8.6501434528e-01 4.0119683023e-01 3.0131592370e-01 -0.0000000000e+00
554 1.0000000000e+00 1.0000000000e+00 2.0000000000e+00 4.4155295658e-01 -8.6488020964e-01 2.3877439038e-01 0.0000000000e+00
555 1.0000000000e+00 1.0000000000e+00 2.0000000000e+00 6.9645434431e-01 3.8194338159e-01 -6.0751181022e-01 0.0000000000e+00
556 1.0000000000e+00 1.0000000000e+00 2.0000000000e+00 5.6622472345e-01 5.6243868071e-01 6.0253820874e-01 -0.0000000000e+00
557 1.0000000000e+00 1.0000000000e+00 2.0000000000e+00 9.5295414296e-01 3.0289560890e-01 -1.1517444344e-02 0.0000000000e+00
558 1.0000000000e+00 1.0000000000e+00 2.0000000000e+00 7.8730084365e-01 9.1685710037e-02 -6.0971395930e-01 0.0000000000e+00
559 1.0000000000e+00 1.0000000000e+00 2.0000000000e+00 4.1867946013e-01 8.6630588737e-01 2.7243644981e-01 -0.0000000000e+00
560 1.0000000000e+00 1.0000000000e+00 2.0000000000e+00 7.1952592244e-01 -1.3018189465e-01 6.8215476341e-01 0.0000000000e+00
561 1.0000000000e+00 1.0000000000e+00 2.0000000000e+00 9.6656488885e-01 2.4751285926e-01 -6.7005224717e-02 0.0000000000e+00
562 1.0000000000e+00 1.0000000000e+00 2.0000000000e+00 7.8734539516e-01 -2.5161529930e-01 5.6282943231e-01 0.0000000000e+00
563 1.0000000000e+00 1.0000000000e+00 2.0000000000e+00 6.6621393794e-01 4.3412065708e-01 -6.0638126948e-01 0.0000000000e+00
564 1.0000000000e+00 1.0000000000e+00 2.0000000000e+00 6.6553580152e-01 -2.1219095570e-01 7.1556767340e-01 0.0000000000e+00
565 1.0000000000e+00 1.0000000000e+00 2.0000000000e+00 9.3914709885e-01 -1.3605688694e-01 3.1542233631e-01 0.0000000000e+00
566 1.0000000000e+00 1.0000000000e+00 2.0000000000e+00 8.2000802560e-01 -3.0981638074e-01 -4.8124905005e-01 0.0000000000e+00
567 1.0000000000e+00 1.0000000000e+00 2.0000000000e+00 6.6622187796e-01 7.3766772454e-01 -1.0952048897e-01 0.0000000000e+00
568 1.0000000000e+00 1.0000000000e+00 2.0000000000e+00 9.3336016866e-01 -1.0880545019e-01 3.4205287540e-01 0.0000000000e+00
569 1.0000000000e+00 1.0000000000e+00 2.0000000000e+00 8.0695460613e-01 5.8617786176e-01 7.2248031329e-02 -0.0000000000e+00
570 1.0000000000e+00 1.0000000000e+00 2.0000000000e+00 1.3072972412e-01 9.3825670929e-02 9.8696832913e-01 -0.0000000000e+00
571 1.0000000000e+00 1.0000000000e+00 2.0000000000e+00 7.9080675610e-01 6.1174227617e-01 1.9901307858e-02 -0.0000000000e+00
572 1.0000000000e+00 1.0000000000e+00 2.0000000000e+00 7.5026087309e-01 5.8941632841e-01 -2.9949459781e-01 0.0000000000e+00
573 1.0000000000e+00 1.0000000000e+00 2.0000000000e+00 6.6687266582e-01 -7.1007576635e-02 -7.4178081105e-01 0.0000000000e+00
574 1.0000000000e+00 1.0000000000e+00 2.0000000000e+00 6.4430656419e-01 -7.5658140469e-01 1.1159583062e-01 0.0000000000e+00
575 1.0000000000e+00 1.0000000000e+00 2.0000000000e+00 9.1044975882e-01 4.1360757922e-01 -3.1633950885e-03 0.0000000000e+00
576 1.0000000000e+00 1.0000000000e+00 2.0000000000e+00 9.9253885906e-01 5.7121156199e-02 -1.0772087431e-01 0.0000000000e+00
577 1.0000000000e+00 1.0000000000e+00 2.0000000000e+00 8.6267588609e-01 -2.3052862459e-01 4.5016315798e-01 0.0000000000e+00
578 1.0000000000e+00 1.0000000000e+00 2.0000000000e+00 3.2225434366e-01 -3.9245466017e-01 -8.6147053211e-01 0.0000000000e+00
579 1.0000000000e+00 1.0000000000e+00 2.0000000000e+00 6.4569596839e-01 -6.7228053271e-01 3.6209888393e-01 0.0000000000e+00
580 1.0000000000e+00 1.0000000000e+00 2.0000000000e+00 9.0248191665e-01 4.0282750734e-01 -1.5250045725e-01 0.0000000000e+00
581 1.0000000000e+00 1.0000000000e+00 2.0000000000e+00 6.9663272014e-01 4.3451968360e-01 5.7087257579e-01 -0.0000000000e+00
582 1.0000000000e+00 1.0000000000e+00 2.0000000000e+00 9.6673028114e-01 -2.4054051999e-01 -8.7021961393e-02 0.0000000000e+00
583 1.0000000000e+00 1.0000000000e+00 2.0000000000e+00 5.7528181427e-01 -6.4033755862e-01 5.0893874404e-01 0.0000000000e+00
584 1.0000000000e+00 1.0000000000e+00 2.0000000000e+00 8.4404245623e-01 1.0615504031e-01 -5.2566475961e-01 0.0000000000e+00
585 1.0000000000e+00 1.0000000000e+00 2.0000000000e+00 8.8093010887e-01 -5.8150145289e-03 4.7321066015e-01 0.0000000000e+00
586 1.0000000000e+00 1.0000000000e+00 2.0000000000e+00 2.2943163964e-01 -6.6899822869e-01 -7.0696710867e-01 0.0000000000e+00
587 1.0000000000e+00 1.0000000000e+00 2.0000000000e+00 8.0792803739e-01 4.9576812104e-01 -3.1853768467e-01 0.0000000000e+00
588 1.0000000000e+00 1.0000000000e+00 2.0000000000e+00 7.0685638053e-01 6.9839675947e-01 -1.1223200820e-01 0.0000000000e+00
589 1.0000000000e+00 1.0000000000e+00 2.0000000000e+00 5.0860640815e-01 7.9047729502e-01 -3.4126993369e-01 0.0000000000e+00
590 1.0000000000e+00 1.0000000000e+00 2.0000000000e+00 7.7632147959e-01 -1.8157805325e-01 -6.0361773574e-01 0.0000000000e+00
591 1.0000000000e+00 1.0000000000e+00 2.0000000000e+00 9.2496517182e-01 3.4733243635e-01 1.5427122082e-01 -0.0000000000e+00
592 1.0000000000e+00 1.0000000000e+00 2.0000000000e+00 6.8036569052e-01 -5.8515448275e-01 4.4124455632e-01 0.0000000000e+00
593 1.0000000000e+00 1.0000000000e+00 2.0000000000e+00 9.8695584734e-01 -7.4192499987e-02 1.4287626936e-01 0.0000000000e+00
594 1.0000000000e+00 1.0000000000e+00 2.0000000000e+00 7.7505659432e-01 5.3079271382e-01 3.4285036176e-01 -0.0000000000e+00
595 1.0000000000e+00 1.0000000000e+00 2.0000000000e+00 4.9373968042e-01 8.1341931052e-01 3.0752260608e-01 -0.0000000000e+00
596 1.0000000000e+00 1.0000000000e+00 2.0000000000e+00 5.7348147527e-01 -7.5622883602e-01 3.1501895989e-01 0.0000000000e+00
597 1.0000000000e+00 1.0000000000e+00 2.0000000000e+00 6.4004785006e-01 3.4195802114e-01 6.8804321188e-01 -0.0000000000e+00
598 1.0000000000e+00 1.0000000000e+00 2.0000000000e+00 5.5379091274e-01 1.5382109972e-01 -8.1832432094e-01 0.0000000000e+00
599 1.0000000000e+00 1.0000000000e+00 2.0000000000e+00 9.3007649736e-01 2.2817667091e-01 2.8791164602e-01 -0.0000000000e+00
600 1.0000000000e+00 1.0000000000e+00 2.0000000000e+00 9.0938542233e-01 -3.6519034295e-01 -1.9913354080e-01 0.0000000000e+00
601 1.0000000000e+00 1.0000000000e+00 2.0000000000e+00 7.3921899679e-01 6.7344443042e-01 -5.2795761962e-03 0.0000000000e+00
602 1.0000000000e+00 1.0000000000e+00 2.0000000000e+00 9.2935228331e-01 -1.8615345795e-01 3.1882789026e-01 0.0000000000e+00
603 1.0000000000e+00 1.0000000000e+00 2.0000000000e+00 3.9329296509e-01 5.9356772428e-01 7.0213816326e-01 -0.0000000000e+00
604 1.0000000000e+00 1.0000000000e+00 2.0000000000e+00 7.6211088518e-01 -5.7876618120e-02 -6.4485447642e-01 0.0000000000e+00
605 1.0000000000e+00 1.0000000000e+00 2.0000000000e+00 4.3546566290e-01 8.9762093382e-01 6.8163887826e-02 -0.0000000000e+00
606 1.0000000000e+00 1.0000000000e+00 2.0000000000e+00 8.6481502221e-01 -4.9249427739e-01 9.7695261365e-02 0.0000000000e+00
607 1.0000000000e+00 1.0000000000e+00 2.0000000000e+00 2.9467510541e-01 -7.2096452974e-01 6.2719752001e-01 0.0000000000e+00
608 1.0000000000e+00 1.0000000000e+00 2.0000000000e+00 8.4774843251e-01 2.1167690544e-01 4.8632857502e-01 -0.0000000000e+00
609 1.0000000000e+00 1.0000000000e+00 2.0000000000e+00 5.1086451635e-01 8.4341191341e-01 1.6635441160e-01 -0.0000000000e+00
610 1.0000000000e+00 1.0000000000e+00 2.0000000000e+00 3.3466441108e-01 6.9940868409e-01 -6.3152769106e-01 0.0000000000e+00
611 1.0000000000e+00 1.0000000000e+00 2.0000000000e+00 2.4982819493e-01 -5.0295020788e-01 8.2742187632e-01 0.0000000000e+00
612 1.0000000000e+00 1.0000000000e+00 2.0000000000e+00 8.2609936887e-02 -9.9567579079e-01 -4.2489033418e-02 0.0000000000e+00
613 1.0000000000e+00 1.0000000000e+00 2.0000000000e+00 3.6281882879e-01 7.5208328181e-01 -5.5021199069e-01 0.0000000000e+00
614 1.0000000000e+00 1.0000000000e+00 2.0000000000e+00 6.0512856324e-01 -7.7673709647e-01 -1.7463935672e-01 0.0000000000e+00
615 1.0000000000e+00 1.0000000000e+00 2.0000000000e+00 1.2103983469e-01 -6.2439691685e-02 9.9068190824e-01 0.0000000000e+00
616 1.0000000000e+00 1.0000000000e+00 2.0000000000e+00 8.3455650328e-01 5.5090943201e-01 -3.7736653086e-03 0.0000000000e+00
617 1.0000000000e+00 1.0000000000e+00 2.0000000000e+00 6.3049125545e-01 2.1038886476e-01 7.4713941295e-01 -0.0000000000e+00
618 1.0000000000e+00 1.0000000000e+00 2.0000000000e+00 6.6248804194e-01 -2.9498556046e-01 -6.8854419859e-01 0.0000000000e+00
619 1.0000000000e+00 1.0000000000e+00 2.0000000000e+00 4.2541641977e-01 4.5812186403e-01 7.8047756373e-01 -0.0000000000e+00
620 1.0000000000e+00 1.0000000000e+00 2.0000000000e+00 5.1709632684e-01 -7.7022588605e-01 -3.7331417496e-01 0.0000000000e+00
621 1.0000000000e+00 1.0000000000e+00 2.0000000000e+00 2.2766760664e-01 3.2382476502e-01 9.1831638472e-01 -0.0000000000e+00
622 1.0000000000e+00 1.0000000000e+00 2.0000000000e+00 9.4501959980e-01 -1.0820267872e-01 -3.0859380472e-01 0.0000000000e+00
623 1.0000000000e+00 1.0000000000e+00 2.0000000000e+00 7.5599027266e-01 3.7832491040e-01 -5.3418065279e-01 0.0000000000e+00
624 1.0000000000e+00 1.0000000000e+00 2.0000000000e+00 2.6601130942e-01 1.1142036594e-01 9.5750900012e-01 -0.0000000000e+00
625 1.0000000000e+00 1.0000000000e+00 2.0000000000e+00 6.4218637949e-01 7.2613286706e-01 -2.4561700546e-01 0.0000000000e+00
626 1.0000000000e+00 1.0000000000e+00 2.0000000000e+00 6.9534414368e-01 -3.5710076036e-01 -6.2367905913e-01 0.0000000000e+00
627 1.0000000000e+00 1.0000000000e+00 2.0000000000e+00 9.4352279432e-01 3.1374349370e-01 1.0644133010e-01 -0.0000000000e+00
628 1.0000000000e+00 1.0000000000e+00 2.0000000000e+00 6.6218723909e-01 7.4807595180e-01 4.3479083638e-02 -0.0000000000e+00
629 1.0000000000e+00 1.0000000000e+00 2.0000000000e+00 8.4951071051e-01 9.3485442700e-02 5.1922251947e-01 -0.0000000000e+00
630 1.0000000000e+00 1.0000000000e+00 2.0000000000e+00 9.5681934285e-01 -5.7445123031e-02 2.8495052728e-01 0.0000000000e+00
631 1.0000000000e+00 1.0000000000e+00 2.0000000000e+00 5.1712566651e-01 4.9145518356e-02 8.5449737452e-01 -0.0000000000e+00
632 1.0000000000e+00 1.0000000000e+00 2.0000000000e+00 9.5312949788e-01 -2.5137646506e-01 -1.6838655852e-01 0.0000000000e+00
633 1.0000000000e+00 1.0000000000e+00 2.0000000000e+00 1.3894459597e-01 7.8023113672e-01 -6.0986373277e-01 0.0000000000e+00
634 1.0000000000e+00 1.0000000000e+00 2.0000000000e+00 8.6239532804e-01 5.0122716779e-01 7.1032559115e-02 -0.0000000000e+00
635 1.0000000000e+00 1.0000000000e+00 2.0000000000e+00 8.5501850577e-01 5.1851051607e-01 -9.4973427667e-03 0.0000000000e+00
636 1.0000000000e+00 1.0000000000e+00 2.0000000000e+00 7.5437838879e-01 6.4701870348e-01 -1.1081535937e-01 0.0000000000e+00
637 1.0000000000e+00 1.0000000000e+00 2.0000000000e+00 2.5682086013e-01 9.6429030091e-01 6.4709051753e-02 -0.0000000000e+00
638 1.0000000000e+00 1.0000000000e+00 2.0000000000e+00 6.0980579650e-01 -4.8799923526e-01 -6.2449470529e-01 0.0000000000e+00
639 1.0000000000e+00 1.0000000000e+00 2.0000000000e+00 7.2609848426e-01 -2.5662660348e-01 -6.3790577481e-01 0.0000000000e+00
640 1.0000000000e+00 1.0000000000e+00 2.0000000000e+00 9.4584422616e-01 1.3234007299e-01 -2.9641998063e-01 0.0000000000e+00
641 1.0000000000e+00 1.0000000000e+00 2.0000000000e+00 9.5216276280e-01 2.3733318677e-01 1.9250722479e-01 -0.0000000000e+00
642 1.0000000000e+00 1.0000000000e+00 2.0000000000e+00 4.0260204429e-01 -2.6754523049e-01 -8.7540341762e-01 0.0000000000e+00
643 1.0000000000e+00 1.0000000000e+00 2.0000000000e+00 5.1827254985e-01 -2.8900664629e-01 8.0490292736e-01 0.0000000000e+00
644 1.0000000000e+00 1.0000000000e+00 2.0000000000e+00 8.4721396583e-01 4.4755475400e-01 -2.8622235809e-01 0.0000000000e+00
645 1.0000000000e+00 1.0000000000e+00 2.0000000000e+00 4.5111779074e-01 -5.8143266807e-01 6.7707369716e-01 0.0000000000e+00
646 1.0000000000e+00 1.0000000000e+00 2.0000000000e+00 5.0998327285e-01 5.6029794884e-01 -6.5267393846e-01 0.0000000000e+00
647 1.0000000000e+00 1.0000000000e+00 2.0000000000e+00 5.6919122264e-01 8.2035327693e-01 -5.5152997143e-02 0.0000000000e+00
648 1.0000000000e+00 1.0000000000e+00 2.0000000000e+00 5.4634934385e-01 1.1039016962e-01 -8.3025080845e-01 0.0000000000e+00
649 1.0000000000e+00 1.0000000000e+00 2.0000000000e+00 7.8265545693e-01 3.1791892716e-01 -5.3514296360e-01 0.0000000000e+00
650 1.0000000000e+00 1.0000000000e+00 2.0000000000e+00 9.6679220988e-01 1.2639952396e-01 -2.2211704857e-01 0.0000000000e+00
651 1.0000000000e+00 1.0000000000e+00 2.0000000000e+00 6.0539607787e-01 1.3836528777e-01 7.8380522839e-01 -0.0000000000e+00
652 1.0000000000e+00 1.0000000000e+00 2.0000000000e+00 9.4114273229e-01 1.9097975303e-01 2.7888544491e-01 -0.0000000000e+00
653 1.0000000000e+00 1.0000000000e+00 2.0000000000e+00 5.9874480242e-01 8.4710661463e-02 7.9644759112e-01 -0.0000000000e+00
654 1.0000000000e+00 1.0000000000e+00 2.0000000000e+00 8.6595268144e-01 -1.0797720342e-02 5.0000936266e-01 0.0000000000e+00
655 1.0000000000e+00 1.0000000000e+00 2.0000000000e+00 9.9379244635e-01 -1.1047716417e-01 1.3090827832e-02 0.0000000000e+00
656 1.0000000000e+00 1.0000000000e+00 2.0000000000e+00 8.8529283729e-01 -5.5400808255e-02 4.6172214879e-01 0.0000000000e+00
657 1.0000000000e+00 1.0000000000e+00 2.0000000000e+00 7.7676092022e-01 -4.9522332315e-01 -3.8909681703e-01 0.0000000000e+00
658 1.0000000000e+00 1.0000000000e+00 2.0000000000e+00 9.8672862537e-01 1.3795274202e-01 8.5648472492e-02 -0.0000000000e+00
659 1.0000000000e+00 1.0000000000e+00 2.0000000000e+00 9.2963481100e-01 -3.1482654282e-01 1.9147680308e-01 0.0000000000e+00
660 1.0000000000e+00 1.0000000000e+00 2.0000000000e+00 7.2899251714e-01 6.1846748177e-01 2.9337328432e-01 -0.0000000000e+00
661 1.0000000000e+00 1.0000000000e+00 2.0000000000e+00 4.2954337559e-01 2.1537338214e-01 -8.7698734013e-01 0.0000000000e+00
662 1.0000000000e+00 1.0000000000e+00 2.0000000000e+00 9.9800307895e-01 6.3163349817e-02 -4.9563536745e-04 0.0000000000e+00
663 1.0000000000e+00 1.0000000000e+00 2.0000000000e+00 8.5380764120e-01 3.7107936187e-01 -3.6512000634e-01 0.0000000000e+00
664 1.0000000000e+00 1.0000000000e+00 2.0000000000e+00 8.5758197091e-01 6.2545155236e-02 5.1053037787e-01 -0.0000000000e+00
665 1.0000000000e+00 1.0000000000e+00 2.0000000000e+00 9.1940900363e-01 -2.4401451455e-01 -3.0845421173e-01 0.0000000000e+00
666 1.0000000000e+00 1.0000000000e+00 2.0000000000e+00 8.4634783198e-01 4.3372906419e-01 -3.0915117041e-01 0.0000000000e+00
667 1.0000000000e+00 1.0000000000e+00 2.0000000000e+00 9.8203049665e-01 1.5565925781e-02 1.8807925353e-01 -0.0000000000e+00
668 1.0000000000e+00 1.0000000000e+00 2.0000000000e+00 8.7958292184e-01 -4.0006762408e-01 2.5744859635e-01 0.0000000000e+00
669 1.0000000000e+00 1.0000000000e+00 2.0000000000e+00 3.0569363150e-01 9.4960179861e-01 6.9338501069e-02 -0.0000000000e+00
670 1.0000000000e+00 1.0000000000e+00 2.0000000000e+00 8.9402198812e-01 -4.4490417941e-01 5.2772681300e-02 0.0000000000e+00
671 1.0000000000e+00 1.0000000000e+00 2.0000000000e+00 5.1265846013e-01 4.4508236190e-01 -7.3422271443e-01 0.0000000000e+00
672 1.0000000000e+00 1.0000000000e+00 2.0000000000e+00 8.9767212276e-01 3.1980439729e-01 -3.0316646829e-01 0.0000000000e+00
673 1.0000000000e+00 1.0000000000e+00 2.0000000000e+00 7.8310510105e-01 3.0223701849e-01 -5.4350638024e-01 0.0000000000e+00
674 1.0000000000e+00 1.0000000000e+00 2.0000000000e+00 8.2120502824e-01 1.1335901780e-01 -5.5926025665e-01 0.0000000000e+00
675 1.0000000000e+00 1.0000000000e+00 2.0000000000e+00 4.7896754811e-01 -8.1693994219e-01 3.2124635205e-01 0.0000000000e+00
676 1.0000000000e+00 1.0000000000e+00 2.0000000000e+00 8.5040428393e-01 -4.8715808091e-01 1.9871979790e-01 0.0000000000e+00
677 1.0000000000e+00 1.0000000000e+00 2.0000000000e+00 6.9346322822e-01 -3.6305863848e-01 6.2233204653e-01 0.0000000000e+00
678 1.0000000000e+00 1.0000000000e+00 2.0000000000e+00 4.6782688041e-01 -8.7778721262e-01 1.0309034544e-01 0.0000000000e+00
679 1.0000000000e+00 1.0000000000e+00 2.0000000000e+00 5.8457034028e-01 -4.6185336726e-01 -6.6705995564e-01 0.0000000000e+00
680 1.0000000000e+00 1.0000000000e+00 2.0000000000e+00 4.3505456147e-01 3.6382384091e-01 -8.2362597174e-01 0.0000000000e+00
681 1.0000000000e+00 1.0000000000e+00 2.0000000000e+00 4.9864132553e-01 -3.4850748877e-01 7.9366199275e-01 0.0000000000e+00
682 1.0000000000e+00 1.0000000000e+00 2.0000000000e+00 9.9402078047e-01 6.3354653129e-02 8.8931861088e-02 -0.0000000000e+00
683 1.0000000000e+00 1.0000000000e+00 2.0000000000e+00 9.8116098656e-01 -1.0490419964e-01 -1.6222893501e-01 0.0000000000e+00
684 1.0000000000e+00 1.0000000000e+00 2.0000000000e+00 4.5646040022e-01 7.5559335466e-01 -4.6981122318e-01 0.0000000000e+00
685 1.0000000000e+00 1.0000000000e+00 2.0000000000e+00 9.5801040365e-01 -1.2112815125e-01 -2.5989235746e-01 0.0000000000e+00
686 1.0000000000e+00 1.0000000000e+00 2.0000000000e+00 8.0499837552e-01 -2.5006877070e-01 -5.3799928005e-01 0.0000000000e+00
687 1.0000000000e+00 1.0000000000e+00 2.0000000000e+00 1.6725730453e-01 -8.5907305290e-01 -4.8375456987e-01 0.0000000000e+00
688 1.0000000000e+00 1.0000000000e+00 2.0000000000e+00 9.5329586023e-01 -2.7687132584e-01 1.2070323854e-01 0.0000000000e+00
689 1.0000000000e+00 1.0000000000e+00 2.0000000000e+00 9.7222845541e-01 -1.4657330811e-01 -1.8245025582e-01 0.0000000000e+00
690 1.0000000000e+00 1.0000000000e+00 2.0000000000e+00 8.3316438446e-01 4.1338993924e-01 -3.6734978780e-01 0.0000000000e+00
691 1.0000000000e+00 1.0000000000e+00 2.0000000000e+00 9.3858244137e-01 -3.0198654384e-01 -1.6693450238e-01 0.0000000000e+00
692 1.0000000000e+00 1.0000000000e+00 2.0000000000e+00 3.9624896921e-01 1.2370382151e-02 -9.1805976278e-01 0.0000000000e+00
693 1.0000000000e+00 1.0000000000e+00 2.0000000000e+00 9.9174809929e-01 -1.1380154303e-01 -5.9033180229e-02 0.0000000000e+00
694 1.0000000000e+00 1.0000000000e+00 2.0000000000e+00 9.3298408695e-01 -2.1581744494e-01 -2.8803389376e-01 0.0000000000e+00
695 1.0000000000e+00 1.0000000000e+00 2.0000000000e+00 7.0474216272e-01 -4.4558799019e-01 -5.5207773645e-01 0.0000000000e+00
696 1.0000000000e+00 1.0000000000e+00 2.0000000000e+00 9.0599310192e-01 -3.6128228286e-01 2.2057110274e-01 0.0000000000e+00
697 1.0000000000e+00 1.0000000000e+00 2.0000000000e+00 4.4041316605e-01 2.9357273001e-01 8.4844050785e-01 -0.0000000000e+00
698 1.0000000000e+00 1.0000000000e+00 2.0000000000e+00 9.1020393357e-01 4.1184008859e-01 4.3778313623e-02 -0.0000000000e+00
699 1.0000000000e+00 1.0000000000e+00 2.0000000000e+00 4.0172370880e-01 6.7097268998e-01 -6.2322845818e-01 0.0000000000e+00
700 1.0000000000e+00 1.0000000000e+00 2.0000000000e+00 4.8806737118e-01 -6.5342340208e-01 5.7864332607e-01 0.0000000000e+00
701 1.0000000000e+00 1.0000000000e+00 2.0000000000e+00 8.6252861013e-01 4.8100501757e-01 1.5709414304e-01 -0.0000000000e+00
702 1.0000000000e+00 1.0000000000e+00 2.0000000000e+00 6.3507956644e-01 5.2497658386e-01 -5.6663350650e-01 0.0000000000e+00
703 1.0000000000e+00 1.0000000000e+00 2.0000000000e+00 9.7334224171e-01 2.2104512365e-01 6.1187693345e-02 -0.0000000000e+00
704 1.0000000000e+00 1.0000000000e+00 2.0000000000e+00 3.2933641459e-01 -6.0073244099e-01 -7.2846280644e-01 0.0000000000e+00
705 1.0000000000e+00 1.0000000000e+00 2.0000000000e+00 8.7834472516e-01 1.8251339588e-01 -4.4181376631e-01 0.0000000000e+00
706 1.0000000000e+00 1.0000000000e+00 2.0000000000e+00 3.5709124514e-01 8.6368028674e-01 3.5572771180e-01 -0.0000000000e+00
707 1.0000000000e+00 1.0000000000e+00 2.0000000000e+00 4.3676873501e-01 -2.9357296916e-01 8.5032228237e-01 0.0000000000e+00
708 1.0000000000e+00 1.0000000000e+00 2.0000000000e+00 5.8830349793e-01 7.9030674833e-01 -1.7121401192e-01 0.0000000000e+00
709 1.0000000000e+00 1.0000000000e+00 2.0000000000e+00 9.0104048006e-01 -4.3071702064e-02 4.3159110483e-01 0.0000000000e+00
710 1.0000000000e+00 1.0000000000e+00 2.0000000000e+00 5.7244325443e-01 -1.9136695164e-01 -7.9730007543e-01 0.0000000000e+00
711 1.0000000000e+00 1.0000000000e+00 2.0000000000e+00 6.7080245332e-01 -7.4146882508e-01 1.5749605037e-02 0.0000000000e+00
712 1.0000000000e+00 1.0000000000e+00 2.0000000000e+00 4.8225553846e-01 -6.9098227997e-01 -5.3849148962e-01 0.0000000000e+00
713 1.0000000000e+00 1.0000000000e+00 2.0000000000e+00 5.3061693044e-01 -8.4657360123e-01 4.1938178617e-02 0.0000000000e+00
714 1.0000000000e+00 1.0000000000e+00 2.0000000000e+00 6.6070793112e-01 7.4892875192e-01 -5.0702606477e-02 0.0000000000e+00
715 1.0000000000e+00 1.0000000000e+00 2.0000000000e+00 9.0569527217e-01 1.6043746325e-01 -3.9239762276e-01 0.0000000000e+00
716 1.0000000000e+00 1.0000000000e+00 2.0000000000e+00 8.3037853188e-01 4.7267076518e-01 2.9504887989e-01 -0.0000000000e+00
717 1.0000000000e+00 1.0000000000e+00 2.0000000000e+00 8.7124728637e-01 -4.7769534140e-01 -1.1285090515e-01 0.0000000000e+00
718 1.0000000000e+00 1.0000000000e+00 2.0000000000e+00 8.3929718222e-01 -1.3294618166e-01 5.2716748070e-01 0.0000000000e+00
719 1.0000000000e+00 1.0000000000e+00 2.0000000000e+00 2.2579824745e-01 -8.0630971677e-02 9.7083149818e-01 0.0000000000e+00
720 1.0000000000e+00 1.0000000000e+00 2.0000000000e+00 1.7252648478e-01 8.8429910067e-01 -4.3387753180e-01 0.0000000000e+00
721 1.0000000000e+00 1.0000000000e+00 2.0000000000e+00 4.7749548318e-01 7.3928860859e-01 -4.7481619260e-01 0.0000000000e+00
722 1.0000000000e+00 1.0000000000e+00 2.0000000000e+00 2.5494212114e-01 9.4843828870e-01 1.8833302260e-01 -0.0000000000e+00
723 1.0000000000e+00 1.0000000000e+00 2.0000000000e+00 8.7971530141e-01 4.5881626215e-01 1.2485441943e-01 -0.0000000000e+00
724 1.0000000000e+00 1.0000000000e+00 2.0000000000e+00 2.9438146955e-01 6.2215332238e-01 -7.2544110294e-01 0.0000000000e+00
725 1.0000000000e+00 1.0000000000e+00 2.0000000000e+00 8.3677329729e-01 1.8255537814e-01 5.1622086635e-01 -0.0000000000e+00
726 1.0000000000e+00 1.0000000000e+00 2.0000000000e+00 5.9542147012e-01 2.7178312636e-01 -7.5604709188e-01 0.0000000000e+00
727 1.0000000000e+00 1.0000000000e+00 2.0000000000e+00 3.8976180233e-01 -2.9523985782e-01 8.7230680600e-01 0.0000000000e+00
728 1.0000000000e+00 1.0000000000e+00 2.0000000000e+00 8.0567948520e-01 -3.1709481092e-01 5.0033133823e-01 0.0000000000e+00
729 1.0000000000e+00 1.0000000000e+00 2.0000000000e+00 6.5462519939e-01 5.5774896421e-01 5.1027633812e-01 -0.0000000000e+00
730 1.0000000000e+00 1.0000000000e+00 2.0000000000e+00 9.8619278394e-01 1.3744035758e-01 -9.2379332165e-02 0.0000000000e+00
731 1.0000000000e+00 1.0000000000e+00 2.0000000000e+00 4.7206798458e-01 -3.7390851523e-03 -8.8155421681e-01 0.0000000000e+00
732 1.0000000000e+00 1.0000000000e+00 2.0000000000e+00 3.4751640451e-01 4.2073200338e-01 8.3798384825e-01 -0.0000000000e+00
733 1.0000000000e+00 1.0000000000e+00 2.0000000000e+00 7.4224122881e-01 2.8136805596e-01 -6.0820224871e-01 0.0000000000e+00
734 1.0000000000e+00 1.0000000000e+00 2.0000000000e+00 8.8618655338e-01 1.7330764192e-01 -4.2969507078e-01 0.0000000000e+00
735 1.0000000000e+00 1.0000000000e+00 2.0000000000e+00 7.2742234500e-01 -5.0738871667e-01 -4.6196690596e-01 0.0000000000e+00
736 1.0000000000e+00 1.0000000000e+00 2.0000000000e+00 6.8333363282e-01 6.7659508988e-01 -2.7436149622e-01 0.0000000000e+00
737 1.0000000000e+00 1.0000000000e+00 2.0000000000e+00 6.3990623740e-01 6.9925443414e-01 -3.1868988636e-01 0.0000000000e+00
738 1.0000000000e+00 1.0000000000e+00 2.0000000000e+00 7.6972360686e-01 5.7384138527e-01 2.7969918410e-01 -0.0000000000e+00
739 1.0000000000e+00 1.0000000000e+00 2.0000000000e+00 3.1142262509e-01 -1.3290063307e-01 -9.4093218157e-01 0.0000000000e+00
740 1.0000000000e+00 1.0000000000e+00 2.0000000000e+00 3.8922602580e-01 2.4858778974e-01 -8.8696516934e-01 0.0000000000e+00
741 1.0000000000e+00 1.0000000000e+00 2.0000000000e+00 5.2890088845e-01 5.4701654547e-01 -6.4887344620e-01 0.0000000000e+00
742 1.0000000000e+00 1.0000000000e+00 2.0000000000e+00 2.1188943885e-01 9.7339942218e-01 -8.7157504587e-02 0.0000000000e+00
743 1.0000000000e+00 1.0000000000e+00 2.0000000000e+00 5.6806792374e-01 7.9621585180e-01 -2.0818057391e-01 0.0000000000e+00
744 1.0000000000e+00 1.0000000000e+00 2.0000000000e+00 6.2407647251e-01 -6.5721819786e-01 4.2260240991e-01 0.0000000000e+00
745 1.0000000000e+00 1.0000000000e+00 2.0000000000e+00 9.5067548507e-01 -2.2548233443e-01 -2.1301135871e-01 0.0000000000e+00
746 1.0000000000e+00 1.0000000000e+00 2.0000000000e+00 7.6852157205e-01 -6.3577769157e-01 -7.1842328697e-02 0.0000000000e+00
747 1.0000000000e+00 1.0000000000e+00 2.0000000000e+00 7.7771903471e-01 -5.7211433521e-01 2.6045784785e-01 0.0000000000e+00
748 1.0000000000e+00 1.0000000000e+00 2.0000000000e+00 8.1386029596e-01 4.8435485805e-01 -3.2098565410e-01 0.0000000000e+00
749 1.0000000000e+00 1.0000000000e+00 2.0000000000e+00 6.7734700438e-01 3.6666719992e-01 6.3777441165e-01 -0.0000000000e+00
750 1.0000000000e+00 1.0000000000e+00 2.0000000000e+00 2.4215000693e-01 8.4976445289e-01 4.6825607177e-01 -0.0000000000e+00
751 1.0000000000e+00 1.0000000000e+00 2.0000000000e+00 3.8404477059e-01 1.9403586192e-01 -9.0269579509e-01 0.0000000000e+00
752 1.0000000000e+00 1.0000000000e+00 2.0000000000e+00 5.2286704457e-01 -7.4830039829e-02 -8.4912338258e-01 0.0000000000e+00
753 1.0000000000e+00 1.0000000000e+00 2.0000000000e+00 4.4341924849e-01 8.1516940851e-01 -3.7266366269e-01 0.0000000000e+00
754 1.0000000000e+00 1.0000000000e+00 2.0000000000e+00 7.4454071104e-01 -4.2080327798e-01 5.1825064481e-01 0.0000000000e+00
755 1.0000000000e+00 1.0000000000e+00 2.0000000000e+00 9.9259727174e-01 -1.0554887681e-01 6.0084030638e-02 0.0000000000e+00
756 1.0000000000e+00 1.0000000000e+00 2.0000000000e+00 1.8653257776e-01 9.7521542746e-01 1.1899776247e-01 -0.0000000000e+00
757 1.0000000000e+00 1.0000000000e+00 2.0000000000e+00 3.2777532712e-01 9.3738161568e-01 1.1780934394e-01 -0.0000000000e+00
758 1.0000000000e+00 1.0000000000e+00 2.0000000000e+00 4.3859968025e-01 8.9868196340e-01 1.0242734059e-03 -0.0000000000e+00
759 1.0000000000e+00 1.0000000000e+00 2.0000000000e+00 9.7185084346e-01 -2.3508243527e-01 1.5562348939e-02 0.0000000000e+00
760 1.0000000000e+00 1.0000000000e+00 2.0000000000e+00 7.0711715092e-01 2.4540613508e-01 -6.6314490403e-01 0.0000000000e+00
761 1.0000000000e+00 1.0000000000e+00 2.0000000000e+00 9.0993491046e-01 -3.5488430749e-01 2.1465224670e-01 0.0000000000e+00
762 1.0000000000e+00 1.0000000000e+00 2.0000000000e+00 7.1446576444e-01 6.3767197808e-02 -6.9675850618e-01 0.0000000000e+00
763 1.0000000000e+00 1.0000000000e+00 2.0000000000e+00 8.8667166466e-01 4.5996277466e-01 -4.7408912741e-02 0.0000000000e+00
764 1.0000000000e+00 1.0000000000e+00 2.0000000000e+00 6.0929813033e-01 7.5452701128e-01 2.4381299725e-01 -0.0000000000e+00
765 1.0000000000e+00 1.0000000000e+00 2.0000000000e+00 5.3858794072e-01 8.1475214254e-01 -2.1471370785e-01 0.0000000000e+00
766 1.0000000000e+00 1.0000000000e+00 2.0000000000e+00 8.1417218871e-01 -2.1821220799e-01 -5.3805862080e-01 0.0000000000e+00
767 1.0000000000e+00 1.0000000000e+00 2.0000000000e+00 9.9249900610e-01 1.9570686969e-02 1.2067605855e-01 -0.0000000000e+00
768 1.0000000000e+00 1.0000000000e+00 2.0000000000e+00 8.5667855751e-01 -1.7234045541e-02 -5.1556264099e-01 0.0000000000e+00
769 1.0000000000e+00 1.0000000000e+00 2.0000000000e+00 3.9988619926e-01 7.7223311672e-01 4.9370744484e-01 -0.0000000000e+00
770 1.0000000000e+00 1.0000000000e+00 2.0000000000e+00 4.5484018786e-01 -8.9046266040e-01 1.4023335804e-02 0.0000000000e+00
771 1.0000000000e+00 1.0000000000e+00 2.0000000000e+00 9.0623241198e-01 4.1892304564e-01 -5.6976287209e-02 0.0000000000e+00
772 1.0000000000e+00 1.0000000000e+00 2.0000000000e+00 7.8291166106e-01 5.9823564671e-01 1.7077307163e-01 -0.0000000000e+00
773 1.0000000000e+00 1.0000000000e+00 2.0000000000e+00 3.0475850489e-01 3.6957503579e-02 9.5171234973e-01 -0.0000000000e+00
774 1.0000000000e+00 1.0000000000e+00 2.0000000000e+00 5.1603308448e-01 7.0413600062e-01 4.8775234326e-01 -0.0000000000e+00
775 1.0000000000e+00 1.0000000000e+00 2.0000000000e+00 9.5037985492e-01 -1.7238018713e-01 2.5896563951e-01 0.0000000000e+00
776 1.0000000000e+00 1.0000000000e+00 2.0000000000e+00 9.2703689426e-01 5.0404833388e-02 3.7156688423e-01 -0.0000000000e+00
777 1.0000000000e+00 1.0000000000e+00 2.0000000000e+00 9.9820363763e-01 -2.1887405737e-02 5.5771312523e-02 0.0000000000e+00
778 1.0000000000e+00 1.0000000000e+00 2.0000000000e+00 8.7055087598e-01 1.8813254524e-01 -4.5469475228e-01 0.0000000000e+00
779 1.0000000000e+00 1.0000000000e+00 2.0000000000e+00 7.5052350401e-01 2.3827670162e-01 -6.1639166395e-01 0.0000000000e+00
780 1.0000000000e+00 1.0000000000e+00 2.0000000000e+00 9.6853448201e-01 2.2355587441e-01 -1.0937882877e-01 0.0000000000e+00
781 1.0000000000e+00 1.0000000000e+00 2.0000000000e+00 3.4508476739e-01 -6.2893442164e-01 6.9667639302e-01 0.0000000000e+00
782 1.0000000000e+00 1.0000000000e+00 2.0000000000e+00 9.1900537156e-01 -2.3323676579e-01 3.1785175497e-01 0.0000000000e+00
783 1.0000000000e+00 1.0000000000e+00 2.0000000000e+00 9.7006411779e-01 2.4106435587e-01 -2.9386794834e-02 0.0000000000e+00
784 1.0000000000e+00 1.0000000000e+00 2.0000000000e+00 1.9613296194e-01 4.9973826428e-01 8.4367856939e-01 -0.0000000000e+00
785 1.0000000000e+00 1.0000000000e+00 2.0000000000e+00 9.8266269757e-01 1.8499423580e-01 -1.2294532677e-02 0.0000000000e+00
786 1.0000000000e+00 1.0000000000e+00 2.0000000000e+00 9.6314178129e-01 -2.6641313522e-01 -3.7174594903e-02 0.0000000000e+00
787 1.0000000000e+00 1.0000000000e+00 2.0000000000e+00 1.7047554084e-01 4.2588090042e-01 -8.8857388473e-01 0.0000000000e+00
788 1.0000000000e+00 1.0000000000e+00 2.0000000000e+00 4.5135838054e-01 -8.9060460786e-01 -5.5669064864e-02 0.0000000000e+00
789 1.0000000000e+00 1.0000000000e+00 2.0000000000e+00 7.0338680116e-01 5.1853068583e-01 4.8618199864e-01 -0.0000000000e+00
790 1.0000000000e+00 1.0000000000e+00 2.0000000000e+00 8.0788895483e-01 -1.4145257340e-01 5.7210716316e-01 0.0000000000e+00
791 1.0000000000e+00 1.0000000000e+00 2.0000000000e+00 6.3872588213e-01 3.7353614461e-01 -6.7268119951e-01 0.0000000000e+00
792 1.0000000000e+00 1.0000000000e+00 2.0000000000e+00 2.9936992965e-01 8.5881861565e-01 4.1570209360e-01 -0.0000000000e+00
793 1.0000000000e+00 1.0000000000e+00 2.0000000000e+00 3.0760658721e-01 -7.5517792999e-01 5.7886482149e-01 0.0000000000e+00
794 1.0000000000e+00 1.0000000000e+00 2.0000000000e+00 7.5835535284e-01 -6.4327658420e-01 1.0532043979e-01 0.0000000000e+00
795 1.0000000000e+00 1.0000000000e+00 2.0000000000e+00 5.9127654769e-01 -7.9985428281e-01 1.0307846728e-01 0.0000000000e+00
796 1.0000000000e+00 1.0000000000e+00 2.0000000000e+00 9.5856476953e-01 2.2438143677e-01 -1.7551795760e-01 0.0000000000e+00
797 1.0000000000e+00 1.0000000000e+00 2.0000000000e+00 7.7618216478e-01 -4.7033255239e-01 4.1991491667e-01 0.0000000000e+00
798 1.0000000000e+00 1.0000000000e+00 2.0000000000e+00 5.7618503733e-01 -3.1824624080e-01 -7.5281480655e-01 0.0000000000e+00
799 1.0000000000e+00 1.0000000000e+00 2.0000000000e+00 8.1741102964e-01 -1.9836790248e-01 5.4082287663e-01 0.0000000000e+00
800 1.0000000000e+00 1.0000000000e+00 2.0000000000e+00 6.6295994161e-01 -3.6405835061e-01 -6.5417553697e-01 0.0000000000e+00
801 1.0000000000e+00 1.0000000000e+00 2.0000000000e+00 5.5922274496e-01 -7.4322532453e-01 -3.6726834670e-01 0.0000000000e+00
802 1.0000000000e+00 1.0000000000e+00 2.0000000000e+00 8.7211856914e-01 4.8178020311e-01 -8.5422697558e-02 0.0000000000e+00
803 1.0000000000e+00 1.0000000000e+00 2.0000000000e+00 8.6715996507e-01 4.2217824457e-01 2.6419523993e-01 -0.0000000000e+00
804 1.0000000000e+00 1.0000000000e+00 2.0000000000e+00 3.1543983150e-01 9.2837734825e-01 1.9650244774e-01 -0.0000000000e+00
805 1.0000000000e+00 1.0000000000e+00 2.0000000000e+00 9.0708435388e-01 2.1348355904e-01 3.6279849085e-01 -0.0000000000e+00
806 1.0000000000e+00 1.0000000000e+00 2.0000000000e+00 7.4479522312e-01 5.7396090079e-01 -3.4036592071e-01 0.0000000000e+00
807 1.0000000000e+00 1.0000000000e+00 2.0000000000e+00 4.0805100557e-01 -5.9320890024e-01 -6.9397231755e-01 0.0000000000e+00
808 1.0000000000e+00 1.0000000000e+00 2.0000000000e+00 5.4125054458e-01 6.2570009815e-01 -5.6173591230e-01 0.0000000000e+00
809 1.0000000000e+00 1.0000000000e+00 2.0000000000e+00 9.4340694451e-01 -2.9990960048e-01 -1.4155411892e-01 0.0000000000e+00
810 1.0000000000e+00 1.0000000000e+00 2.0000000000e+00 6.6111491806e-01 -2.3076994959e-01 -7.1391336694e-01 0.0000000000e+00
811 1.0000000000e+00 1.0000000000e+00 2.0000000000e+00 5.7723604349e-01 -4.1984479609e-01 -7.0037768189e-01 0.0000000000e+00
812 1.0000000000e+00 1.0000000000e+00 2.0000000000e+00 7.3661921714e-01 -2.2425144572e-01 -6.3804656416e-01 0.0000000000e+00
813 1.0000000000e+00 1.0000000000e+00 2.0000000000e+00 9.1826535781e-01 3.8295778893e-01 -1.0065815685e-01 0.0000000000e+00
814 1.0000000000e+00 1.0000000000e+00 2.0000000000e+00 8.7340018249e-01 4.2401887350e-01 -2.3954147059e-01 0.0000000000e+00
815 1.0000000000e+00 1.0000000000e+00 2.0000000000e+00 4.9842385118e-01 6.4448686451e-01 -5.7983648216e-01 0.0000000000e+00
816 1.0000000000e+00 1.0000000000e+00 2.0000000000e+00 9.3227278012e-01 -1.7266673647e-01 3.1788938574e-01 0.0000000000e+00
817 1.0000000000e+00 1.0000000000e+00 2.0000000000e+00 9.8895212389e-01 -1.1967896108e-01 -8.7467953675e-02 0.0000000000e+00
818 1.0000000000e+00 1.0000000000e+00 2.0000000000e+00 9.2466411290e-01 -1.4329247287e-01 3.5279391368e-01 0.0000000000e+00
819 1.0000000000e+00 1.0000000000e+00 2.0000000000e+00 5.1191832656e-01 7.9967901914e-01 -3.1377235901e-01 0.0000000000e+00
820 1.0000000000e+00 1.0000000000e+00 2.0000000000e+00 9.1521490366e-01 3.8596923007e-01 1.1579910858e-01 -0.0000000000e+00
821 1.0000000000e+00 1.0000000000e+00 2.0000000000e+00 6.7286533141e-02 7.8989695056e-01 -6.0953697997e-01 0.0000000000e+00
822 1.0000000000e+00 1.0000000000e+00 2.0000000000e+00 2.3451436556e-01 9.7120593432e-01 4.1976725473e-02 -0.0000000000e+00
823 1.0000000000e+00 1.0000000000e+00 2.0000000000e+00 4.3275925274e-01 -8.5784722491e-01 -2.7715982371e-01 0.0000000000e+00
824 1.0000000000e+00 1.0000000000e+00 2.0000000000e+00 7.0405840294e-01 6.2031747834e-01 -3.4569927874e-01 0.0000000000e+00
825 1.0000000000e+00 1.0000000000e+00 2.0000000000e+00 4.8145521872e-01 -8.6843385707e-01 1.1842089451e-01 0.0000000000e+00
826 1.0000000000e+00 1.0000000000e+00 2.0000000000e+00 6.4897431864e-01 -4.1882193130e-01 -6.3515393694e-01 0.0000000000e+00
827 1.0000000000e+00 1.0000000000e+00 2.0000000000e+00 6.8903359344e-01 -5.9265769695e-01 -4.1712055974e-01 0.0000000000e+00
828 1.0000000000e+00 1.0000000000e+00 2.0000000000e+00 6.3540649910e-01 -6.9388607053e-01 -3.3879300765e-01 0.0000000000e+00
829 1.0000000000e+00 1.0000000000e+00 2.0000000000e+00 1.8664032277e-01 2.8885661968e-01 -9.3900332437e-01 0.0000000000e+00
830 1.0000000000e+00 1.0000000000e+00 2.0000000000e+00 7.6375451157e-01 -3.3466939445e-01 5.5197413208e-01 0.0000000000e+00
831 1.0000000000e+00 1.0000000000e+00 2.0000000000e+00 7.3811831488e-01 -6.5859381089e-01 1.4640882998e-01 0.0000000000e+00
832 1.0000000000e+00 1.0000000000e+00 2.0000000000e+00 8.5927072721e-01 1.2018952791e-01 -4.9720045730e-01 0.0000000000e+00
833 1.0000000000e+00 1.0000000000e+00 2.0000000000e+00 4.0485702750e-01 8.9258048397e-01 1.9847132516e-01 -0.0000000000e+00
834 1.0000000000e+00 1.0000000000e+00 2.0000000000e+00 6.9328833049e-01 7.2019911405e-01 2.5778419688e-02 -0.0000000000e+00
835 1.0000000000e+00 1.0000000000e+00 2.0000000000e+00 9.6152163991e-01 1.4411882426e-01 -2.3389292526e-01 0.0000000000e+00
836 1.0000000000e+00 1.0000000000e+00 2.0000000000e+00 7.5085939575e-01 5.7582225556e-01 3.2347936226e-01 -0.0000000000e+00
837 1.0000000000e+00 1.0000000000e+00 2.0000000000e+00 8.7065868245e-01 -3.1250184824e-01 3.7986320370e-01 0.0000000000e+00
838 1.0000000000e+00 1.0000000000e+00 2.0000000000e+00 9.2194618935e-01 -3.0340025311e-01 -2.4075612215e-01 0.0000000000e+00
839 1.0000000000e+00 1.0000000000e+00 2.0000000000e+00 8.1048696508e-01 -4.2010709391e-01 4.0819224524e-01 0.0000000000e+00
840 1.0000000000e+00 1.0000000000e+00 2.0000000000e+00 4.2565354178e-01 1.3244715545e-01 -8.9514066681e-01 0.0000000000e+00
841 1.0000000000e+00 1.0000000000e+00 2.0000000000e+00 9.9660200735e-01 -1.3147988923e-02 -8.1311557177e-02 0.0000000000e+00
842 1.0000000000e+00 1.0000000000e+00 2.0000000000e+00 2.9071910248e-01 6.2887320308e-01 -7.2111087767e-01 0.0000000000e+00
843 1.0000000000e+00 1.0000000000e+00 2.0000000000e+00 8.0328329784e-01 -3.2833771825e-01 -4.9692080474e-01 0.0000000000e+00
844 1.0000000000e+00 1.0000000000e+00 2.0000000000e+00 7.3106724548e-01 6.2458674846e-01 -2.7464900552e-01 0.0000000000e+00
845 1.0000000000e+00 1.0000000000e+00 2.0000000000e+00 4.7450581424e-01 -7.7150682502e-01 -4.2381770986e-01 0.0000000000e+00
846 1.0000000000e+00 1.0000000000e+00 2.0000000000e+00 5.4506993686e-01 5.9667860444e-03 8.3836934665e-01 -0.0000000000e+00
847 1.0000000000e+00 1.0000000000e+00 2.0000000000e+00 7.0710709545e-01 7.0479824630e-01 -5.7087543155e-02 0.0000000000e+00
848 1.0000000000e+00 1.0000000000e+00 2.0000000000e+00 5.3194501821e-01 -2.7057585211e-01 -8.0238594570e-01 0.0000000000e+00
849 1.0000000000e+00 1.0000000000e+00 2.0000000000e+00 8.2357773751e-01 -4.9077288951e-01 2.8436188422e-01 0.0000000000e+00
850 1.0000000000e+00 1.0000000000e+00 2.0000000000e+00 6.0484162975e-01 5.9915030398e-01 5.2458127698e-01 -0.0000000000e+00
851 1.0000000000e+00 1.0000000000e+00 2.0000000000e+00 8.7151278228e-01 9.1269355620e-02 4.8180429123e-01 -0.0000000000e+00
852 1.0000000000e+00 1.0000000000e+00 2.0000000000e+00 4.7695287937e-01 -7.2257840219e-01 -5.0039624653e-01 0.0000000000e+00
853 1.0000000000e+00 1.0000000000e+00 2.0000000000e+00 6.5843843677e-01 -5.7082555908e-01 4.9052727353e-01 0.0000000000e+00
854 1.0000000000e+00 1.0000000000e+00 2.0000000000e+00 6.1190327811e-01 4.7476423284e-01 6.3259252402e-01 -0.0000000000e+00
855 1.0000000000e+00 1.0000000000e+00 2.0000000000e+00 5.6503639385e-01 -1.3698061057e-01 -8.1361550253e-01 0.0000000000e+00
856 1.0000000000e+00 1.0000000000e+00 2.0000000000e+00 7.7774363712e-01 -4.8538624287e-01 -3.9939332764e-01 0.0000000000e+00
857 1.0000000000e+00 1.0000000000e+00 2.0000000000e+00 9.2528535730e-01 2.5747626998e-01 -2.7848335312e-01 0.0000000000e+00
858 1.0000000000e+00 1.0000000000e+00 2.0000000000e+00 9.6909848264e-01 -1.4217113411e-01 -2.0158248827e-01 0.0000000000e+00
859 1.0000000000e+00 1.0000000000e+00 2.0000000000e+00 9.1099582204e-01 -3.9810272216e-01 1.0770717169e-01 0.0000000000e+00
860 1.0000000000e+00 1.0000000000e+00 2.0000000000e+00 4.1653643724e-01 -8.9525361176e-01 1.5817195415e-01 0.0000000000e+00
861 1.0000000000e+00 1.0000000000e+00 2.0000000000e+00 6.4992236083e-01 -6.4143494501e-01 -4.0762990104e-01 0.0000000000e+00
862 1.0000000000e+00 1.0000000000e+00 2.0000000000e+00 2.4883341211e-01 9.6725584457e-01 4.9980637930e-02 -0.0000000000e+00
863 1.0000000000e+00 1.0000000000e+00 2.0000000000e+00 4.5246873496e-01 -6.1386129082e-01 -6.4687429962e-01 0.0000000000e+00
864 1.0000000000e+00 1.0000000000e+00 2.0000000000e+00 4.1690665148e-01 -3.0872383540e-01 8.5491428659e-01 0.0000000000e+00
865 1.0000000000e+00 1.0000000000e+00 2.0000000000e+00 8.7480892534e-01 1.3833124961e-01 -4.6429926720e-01 0.0000000000e+00
866 1.0000000000e+00 1.0000000000e+00 2.0000000000e+00 9.0692720135e-01 3.5451561458e-01 -2.2759993513e-01 0.0000000000e+00
867 1.0000000000e+00 1.0000000000e+00 2.0000000000e+00 5.6862033883e-01 -6.6957171407e-01 -4.7785419324e-01 0.0000000000e+00
868 1.0000000000e+00 1.0000000000e+00 2.0000000000e+00 9.8338236180e-01 -5.8128334130e-02 1.7198903244e-01 0.0000000000e+00
869 1.0000000000e+00 1.0000000000e+00 2.0000000000e+00 2.2406578395e-01 -3.6741792746e-01 9.0266194727e-01 0.0000000000e+00
870 1.0000000000e+00 1.0000000000e+00 2.0000000000e+00 6.2484161982e-01 7.4617916113e-01 -2.2975989562e-01 0.0000000000e+00
871 1.0000000000e+00 1.0000000000e+00 2.0000000000e+00 6.9909319076e-01 7.0500523751e-01 1.1931607486e-01 -0.0000000000e+00
872 1.0000000000e+00 1.0000000000e+00 2.0000000000e+00 5.1291325879e-01 5.6266349072e-01 -6.4832845470e-01 0.0000000000e+00
873 1.0000000000e+00 1.0000000000e+00 2.0000000000e+00 7.8817125985e-01 -5.1357408384e-01 3.3915737579e-01 0.0000000000e+00
874 1.0000000000e+00 1.0000000000e+00 2.0000000000e+00 3.5465360096e-01 4.4035395200e-01 8.2480859615e-01 -0.0000000000e+00
875 1.0000000000e+00 1.0000000000e+00 2.0000000000e+00 9.2722741241e-01 -3.6783239573e-01 -7.0346672504e-02 0.0000000000e+00
876 1.0000000000e+00 1.0000000000e+00 2.0000000000e+00 3.8482156149e-01 -8.1224582514e-01 4.3837094492e-01 0.0000000000e+00
877 1.0000000000e+00 1.0000000000e+00 2.0000000000e+00 9.1776948205e-01 -1.7968952763e-01 -3.5413394567e-01 0.0000000000e+00
878 1.0000000000e+00 1.0000000000e+00 2.0000000000e+00 3.6173747711e-01 -1.2639390411e-01 -9.2367233295e-01 0.0000000000e+00
879 1.0000000000e+00 1.0000000000e+00 2.0000000000e+00 6.5150064412e-01 7.3764857100e-01 1.7726109672e-01 -0.0000000000e+00
880 1.0000000000e+00 1.0000000000e+00 2.0000000000e+00 1.1862500327e-01 -9.2218935289e-01 -3.6809632708e-01 0.0000000000e+00
881 1.0000000000e+00 1.0000000000e+00 2.0000000000e+00 5.8011333559e-01 4.5741562022e-01 6.7397289875e-01 -0.0000000000e+00
882 1.0000000000e+00 1.0000000000e+00 2.0000000000e+00 7.6830112583e-01 -4.2477473939e-01 -4.7883170407e-01 0.0000000000e+00
883 1.0000000000e+00 1.0000000000e+00 2.0000000000e+00 7.7467933692e-01 -2.3943575357e-02 6.3190080721e-01 0.0000000000e+00
884 1.0000000000e+00 1.0000000000e+00 2.0000000000e+00 9.8391829282e-01 -4.7534454052e-03 1.7855586749e-01 0.0000000000e+00
885 1.0000000000e+00 1.0000000000e+00 2.0000000000e+00 8.1195984389e-01 -5.7987377671e-01 6.6840219856e-02 0.0000000000e+00
886 1.0000000000e+00 1.0000000000e+00 2.0000000000e+00 7.8433246277e-01 3.1971904967e-01 -5.3160353378e-01 0.0000000000e+00
887 1.0000000000e+00 1.0000000000e+00 2.0000000000e+00 8.5324553780e-01 -4.9689850755e-01 1.5831590387e-01 0.0000000000e+00
888 1.0000000000e+00 1.0000000000e+00 2.0000000000e+00 9.2110060890e-01 -9.5100063169e-02 -3.7753098715e-01 0.0000000000e+00
889 1.0000000000e+00 1.0000000000e+00 2.0000000000e+00 9.7597645195e-01 -1.9397514923e-01 -9.9214952058e-02 0.0000000000e+00
890 1.0000000000e+00 1.0000000000e+00 2.0000000000e+00 7.1971625176e-01 2.5176175565e-01 -6.4701200556e-01 0.0000000000e+00
891 1.0000000000e+00 1.0000000000e+00 2.0000000000e+00 7.9145210655e-01 5.4187951572e-01 2.8278994586e-01 -0.0000000000e+00
892 1.0000000000e+00 1.0000000000e+00 2.0000000000e+00 3.7587855779e-01 -6.4331633991e-01 -6.6697780817e-01 0.0000000000e+00
893 1.0000000000e+00 1.0000000000e+00 2.0000000000e+00 4.9034200386e-01 -6.2016615317e-01 6.1233868220e-01 0.0000000000e+00
894 1.0000000000e+00 1.0000000000e+00 2.0000000000e+00 9.2123100962e-01 -3.8195931694e-01 7.3759793349e-02 0.0000000000e+00
895 1.0000000000e+00 1.0000000000e+00 2.0000000000e+00 9.6387743174e-01 -2.6179463859e-01 -4.9029213537e-02 0.0000000000e+00
896 1.0000000000e+00 1.0000000000e+00 2.0000000000e+00 4.9518487794e-01 -8.5156737183e-01 -1.7211899341e-01 0.0000000000e+00
897 1.0000000000e+00 1.0000000000e+00 2.0000000000e+00 3.9746536587e-01 8.9229035854e-01 2.1410090844e-01 -0.0000000000e+00
898 1.0000000000e+00 1.0000000000e+00 2.0000000000e+00 6.5190490892e-01 7.4908666023e-01 1.1785230244e-01 -0.0000000000e+00
899 1.0000000000e+00 1.0000000000e+00 2.0000000000e+00 5.0261098302e-01 -7.6184663359e-01 4.0862196054e-01 0.0000000000e+00
900 1.0000000000e+00 1.0000000000e+00 2.0000000000e+00 9.4771899014e-01 -2.9274891652e-01 -1.2699128948e-01 0.0000000000e+00
901 1.0000000000e+00 1.0000000000e+00 2.0000000000e+00 3.0244448504e-01 8.9842589576e-01 -3.1836809405e-01 0.0000000000e+00
902 1.0000000000e+00 1.0000000000e+00 2.0000000000e+00 7.9710727639e-01 -4.5491344783e-01 -3.9708153434e-01 0.0000000000e+00
903 1.0000000000e+00 1.0000000000e+00 2.0000000000e+00 7.4548296424e-01 -6.4273599760e-01 -1.7648112480e-01 0.0000000000e+00
904 1.0000000000e+00 1.0000000000e+00 2.0000000000e+00 8.9502086267e-01 -4.4391448976e-01 4.3331064651e-02 0.0000000000e+00
905 1.0000000000e+00 1.0000000000e+00 2.0000000000e+00 9.5677555685e-01 2.3862702397e-01 1.6624583377e-01 -0.0000000000e+00
906 1.0000000000e+00 1.0000000000e+00 2.0000000000e+00 4.2009643794e-01 7.1025928481e-01 5.6484575875e-01 -0.0000000000e+00
907 1.0000000000e+00 1.0000000000e+00 2.0000000000e+00 5.2178978872e-01 7.7178165989e-01 -3.6343979673e-01 0.0000000000e+00
908 1.0000000000e+00 1.0000000000e+00 2.0000000000e+00 4.6896530785e-01 7.7442183730e-01 4.2466734976e-01 -0.0000000000e+00
909 1.0000000000e+00 1.0000000000e+00 2.0000000000e+00 8.0811871299e-01 4.7473015713e-01 3.4867667490e-01 -0.0000000000e+00
910 1.0000000000e+00 1.0000000000e+00 2.0000000000e+00 6.2479906653e-01 -5.0637686359e-01 -5.9431355233e-01 0.0000000000e+00
911 1.0000000000e+00 1.0000000000e+00 2.0000000000e+00 6.1980914257e-01 -2.2105230826e-01 -7.5297576574e-01 0.0000000000e+00
912 1.0000000000e+00 1.0000000000e+00 2.0000000000e+00 7.4447598567e-01 -3.8065366738e-01 5.4850550797e-01 0.0000000000e+00
913 1.0000000000e+00 1.0000000000e+00 2.0000000000e+00 2.5978374307e-01 8.4667564023e-01 -4.6438428815e-01 0.0000000000e+00
914 1.0000000000e+00 1.0000000000e+00 2.0000000000e+00 5.0411113579e-01 -4.4244447525e-01 7.4169727591e-01 0.0000000000e+00
915 1.0000000000e+00 1.0000000000e+00 2.0000000000e+00 8.1276365622e-01 -5.2872848964e-01 2.4466594240e-01 0.0000000000e+00
916 1.0000000000e+00 1.0000000000e+00 2.0000000000e+00 3.6321378370e-01 -1.1738345019e-01 -9.2428181468e-01 0.0000000000e+00
917 1.0000000000e+00 1.0000000000e+00 2.0000000000e+00 9.6346727404e-01 5.1293594932e-02 2.6286836815e-01 -0.0000000000e+00
918 1.0000000000e+00 1.0000000000e+00 2.0000000000e+00 8.0784817655e-01 5.2932925504e-01 2.5921393367e-01 -0.0000000000e+00
919 1.0000000000e+00 1.0000000000e+00 2.0000000000e+00 3.7753354030e-01 9.0061772231e-01 2.1530477053e-01 -0.0000000000e+00
920 1.0000000000e+00 1.0000000000e+00 2.0000000000e+00 9.8742658885e-01 2.2929023228e-02 -1.5640649453e-01 0.0000000000e+00
921 1.0000000000e+00 1.0000000000e+00 2.0000000000e+00 6.3204100899e-01 -7.6304733974e-01 1.3521434933e-01 0.0000000000e+00
922 1.0000000000e+00 1.0000000000e+00 2.0000000000e+00 8.4167314552e-01 -3.6204153830e-01 -4.0063978915e-01 0.0000000000e+00
923 1.0000000000e+00 1.0000000000e+00 2.0000000000e+00 6.8089491959e-01 6.1961445336e-01 -3.9046131391e-01 0.0000000000e+00
924 1.0000000000e+00 1.0000000000e+00 2.0000000000e+00 5.9935018127e-02 6.6996016703e-01 7.3997376183e-01 -0.0000000000e+00
925 1.0000000000e+00 1.0000000000e+00 2.0000000000e+00 8.0797548378e-01 3.7906799044e-03 -5.8920391068e-01 0.0000000000e+00
926 1.0000000000e+00 1.0000000000e+00 2.0000000000e+00 8.6099211630e-01 -4.0691775938e-01 -3.0514015267e-01 0.0000000000e+00
927 1.0000000000e+00 1.0000000000e+00 2.0000000000e+00 9.0015225311e-01 -3.3954375347e-01 -2.7282954513e-01 0.0000000000e+00
928 1.0000000000e+00 1.0000000000e+00 2.0000000000e+00 4.7552643332e-01 3.5672634886e-01 8.0412742973e-01 -0.0000000000e+00
929 1.0000000000e+00 1.0000000000e+00 2.0000000000e+00 8.0656890369e-01 -2.4446228332e-01 -5.3822374124e-01 0.0000000000e+00
930 1.0000000000e+00 1.0000000000e+00 2.0000000000e+00 6.2247625226e-02 -1.2947810281e-01 -9.8962652251e-01 0.0000000000e+00
931 1.0000000000e+00 1.0000000000e+00 2.0000000000e+00 7.5441684683e-01 7.3351613028e-02 6.5228426479e-01 -0.0000000000e+00
932 1.0000000000e+00 1.0000000000e+00 2.0000000000e+00 7.3907864445e-01 4.5646976779e-01 -4.9537673383e-01 0.0000000000e+00
933 1.0000000000e+00 1.0000000000e+00 2.0000000000e+00 6.3203625098e-01 -1.7674090258e-01 7.5451496394e-01 0.0000000000e+00
934 1.0000000000e+00 1.0000000000e+00 2.0000000000e+00 4.8700111972e-01 1.8686414276e-03 -8.7339934599e-01 0.0000000000e+00
935 1.0000000000e+00 1.0000000000e+00 2.0000000000e+00 8.5056425407e-01 4.5891647948e-01 -2.5678028461e-01 0.0000000000e+00
936 1.0000000000e+00 1.0000000000e+00 2.0000000000e+00 9.1563519530e-01 3.8515863474e-01 1.1517384777e-01 -0.0000000000e+00
937 1.0000000000e+00 1.0000000000e+00 2.0000000000e+00 5.9775848177e-01 -3.1175129498e-01 7.3857696116e-01 0.0000000000e+00
938 1.0000000000e+00 1.0000000000e+00 2.0000000000e+00 7.2391906296e-01 6.5771389988e-01 -2.0821531211e-01 0.0000000000e+00
939 1.0000000000e+00 1.0000000000e+00 2.0000000000e+00 7.3472305767e-01 1.5689603075e-01 -6.5997398742e-01 0.0000000000e+00
940 1.0000000000e+00 1.0000000000e+00 2.0000000000e+00 4.0290338128e-01 5.4450373335e-01 7.3565246531e-01 -0.0000000000e+00
941 1.0000000000e+00 1.0000000000e+00 2.0000000000e+00 9.1146320646e-01 5.5317692686e-02 4.0764540491e-01 -0.0000000000e+00
942 1.0000000000e+00 1.0000000000e+00 2.0000000000e+00 7.8212891040e-01 9.7704114791e-02 -6.1540902940e-01 0.0000000000e+00
943 1.0000000000e+00 1.0000000000e+00 2.0000000000e+00 4.8932148027e-01 -7.8899813288e-02 -8.6852709135e-01 0.0000000000e+00
944 1.0000000000e+00 1.0000000000e+00 2.0000000000e+00 7.9733468698e-01 2.6952879609e-01 5.4001076380e-01 -0.0000000000e+00
945 1.0000000000e+00 1.0000000000e+00 2.0000000000e+00 9.6160938574e-01 -1.6316751374e-01 -2.2064394783e-01 0.0000000000e+00
946 1.0000000000e+00 1.0000000000e+00 2.0000000000e+00 2.1987179568e-01 8.1220345444e-01 -5.4035353432e-01 0.0000000000e+00
947 1.0000000000e+00 1.0000000000e+00 2.0000000000e+00 6.7868921341e-01 6.3437047331e-02 7.3168073135e-01 -0.0000000000e+00
948 1.0000000000e+00 1.0000000000e+00 2.0000000000e+00 1.6581647480e-01 3.7571246330e-01 9.1178124658e-01 -0.0000000000e+00
949 1.0000000000e+00 1.0000000000e+00 2.0000000000e+00 9.0163417732e-01 -1.2757475180e-01 -4.1325596547e-01 0.0000000000e+00
950 1.0000000000e+00 1.0000000000e+00 2.0000000000e+00 6.6391311951e-01 5.1537394716e-01 5.4185705156e-01 -0.0000000000e+00
951 1.0000000000e+00 1.0000000000e+00 2.0000000000e+00 9.1687726552e-01 1.4889920942e-01 3.7035807728e-01 -0.0000000000e+00
952 1.0000000000e+00 1.0000000000e+00 2.0000000000e+00 2.7207971152e-01 -7.0160787514e-01 -6.5857347359e-01 0.0000000000e+00
953 1.0000000000e+00 1.0000000000e+00 2.0000000000e+00 4.8875213321e-01 8.6103044603e-01 1.4052730442e-01 -0.0000000000e+00
954 1.0000000000e+00 1.0000000000e+00 2.0000000000e+00 2.4697451991e-01 9.3760437767e-01 -2.4474806945e-01 0.0000000000e+00
955 1.0000000000e+00 1.0000000000e+00 2.0000000000e+00 6.9774367169e-01 6.2086018379e-01 -3.5733233944e-01 0.0000000000e+00
956 1.0000000000e+00 1.0000000000e+00 2.0000000000e+00 5.5031939013e-01 8.0874883383e-01 2.0754250801e-01 -0.0000000000e+00
957 1.0000000000e+00 1.0000000000e+00 2.0000000000e+00 3.2919749598e-01 9.3442065625e-01 1.3596707621e-01 -0.0000000000e+00
958 1.0000000000e+00 1.0000000000e+00 2.0000000000e+00 9.8943109418e-01 -1.3617069749e-01 4.9836242078e-02 0.0000000000e+00
959 1.0000000000e+00 1.0000000000e+00 2.0000000000e+00 2.2200838302e-01 -9.0081096956e-01 3.7316467543e-01 0.0000000000e+00
960 1.0000000000e+00 1.0000000000e+00 2.0000000000e+00 3.4160406579e-01 9.2673584205e-01 -1.5642039925e-01 0.0000000000e+00
961 1.0000000000e+00 1.0000000000e+00 2.0000000000e+00 8.9127267286e-01 3.9993940178e-01 -2.1373230338e-01 0.0000000000e+00
962 1.0000000000e+00 1.0000000000e+00 2.0000000000e+00 9.7854637306e-01 -2.0139578413e-01 -4.3436550435e-02 0.0000000000e+00
963 1.0000000000e+00 1.0000000000e+00 2.0000000000e+00 3.5093597380e-01 4.8960405958e-01 7.9820536651e-01 -0.0000000000e+00
964 1.0000000000e+00 1.0000000000e+00 2.0000000000e+00 4.6903222427e-01 -2.4626005829e-01 -8.4815373388e-01 0.0000000000e+00
965 1.0000000000e+00 1.0000000000e+00 2.0000000000e+00 8.9178616836e-01 -1.9792756569e-01 -4.0686866267e-01 0.0000000000e+00
966 1.0000000000e+00 1.0000000000e+00 2.0000000000e+00 5.6171062857e-01 5.7181906333e-01 -5.9791648963e-01 0.0000000000e+00
967 1.0000000000e+00 1.0000000000e+00 2.0000000000e+00 8.3983467594e-01 5.3325421205e-01 -1.0157589491e-01 0.0000000000e+00
968 1.0000000000e+00 1.0000000000e+00 2.0000000000e+00 3.8510654885e-01 9.2243342707e-01 -2.8452041298e-02 0.0000000000e+00
969 1.0000000000e+00 1.0000000000e+00 2.0000000000e+00 6.4431156949e-01 -7.1796014847e-01 -2.6343087638e-01 0.0000000000e+00
970 1.0000000000e+00 1.0000000000e+00 2.0000000000e+00 4.7417595563e-01 -7.8710274542e-01 3.9449515999e-01 0.0000000000e+00
971 1.0000000000e+00 1.0000000000e+00 2.0000000000e+00 9.9706741353e-01 2.2833945068e-02 7.3042342714e-02 -0.0000000000e+00
972 1.0000000000e+00 1.0000000000e+00 2.0000000000e+00 3.6317136114e-01 4.9768685251e-01 -7.8766386186e-01 0.0000000000e+00
973 1.0000000000e+00 1.0000000000e+00 2.0000000000e+00 8.9648957844e-01 -3.7238925333e-01 -2.4006807317e-01 0.0000000000e+00
974 1.0000000000e+00 1.0000000000e+00 2.0000000000e+00 2.5747786400e-01 6.8408556302e-01 -6.8244566964e-01 0.0000000000e+00
975 1.0000000000e+00 1.0000000000e+00 2.0000000000e+00 4.5020616150e-01 6.4902703067e-01 -6.1325225284e-01 0.0000000000e+00
976 1.0000000000e+00 1.0000000000e+00 2.0000000000e+00 8.4606919558e-01 -3.9038688020e-01 -3.6299449040e-01 0.0000000000e+00
977 1.0000000000e+00 1.0000000000e+00 2.0000000000e+00 9.2878755705e-01 2.3573785321e-01 2.8597436674e-01 -0.0000000000e+00
978 1.0000000000e+00 1.0000000000e+00 2.0000000000e+00 7.7739359835e-01 -5.5021044812e-01 3.0484037793e-01 0.0000000000e+00
979 1.0000000000e+00 1.0000000000e+00 2.0000000000e+00 5.6886230336e-01 7.4466372231e-01 3.4910116084e-01 -0.0000000000e+00
980 1.0000000000e+00 1.0000000000e+00 2.0000000000e+00 6.6535688845e-01 -6.4389827544e-01 3.7775021096e-01 0.0000000000e+00
981 1.0000000000e+00 1.0000000000e+00 2.0000000000e+00 9.8839636088e-01 1.5115611263e-01 1.4982103373e-02 -0.0000000000e+00
982 1.0000000000e+00 1.0000000000e+00 2.0000000000e+00 9.4304241183e-01 2.0711395723e-01 2.6033597179e-01 -0.0000000000e+00
983 1.0000000000e+00 1.0000000000e+00 2.0000000000e+00 9.2339933111e-01 -3.8229666440e-01 3.4393832282e-02 0.0000000000e+00
984 1.0000000000e+00 1.0000000000e+00 2.0000000000e+00 9.1266129844e-01 -3.9826712918e-02 -4.0677166477e-01 0.0000000000e+00
985 1.0000000000e+00 1.0000000000e+00 2.0000000000e+00 3.8123251732e-01 -1.4540637670e-01 9.1297248225e-01 0.0000000000e+00
986 1.0000000000e+00 1.0000000000e+00 2.0000000000e+00 7.6314400668e-01 -3.5095812667e-01 -5.4262290625e-01 0.0000000000e+00
987 1.0000000000e+00 1.0000000000e+00 2.0000000000e+00 4.0929023216e-01 -7.0250312805e-01 -5.8221204121e-01 0.0000000000e+00
988 1.0000000000e+00 1.0000000000e+00 2.0000000000e+00 4.7355037798e-01 3.3678351000e-01 -8.1383469262e-01 0.0000000000e+00
989 1.0000000000e+00 1.0000000000e+00 2.0000000000e+00 9.4510427191e-01 1.0352580286e-01 3.0993599883e-01 -0.0000000000e+00
990 1.0000000000e+00 1.0000000000e+00 2.0000000000e+00 7.2277681645e-01 6.7473541171e-01 -1.4941819765e-01 0.0000000000e+00
991 1.0000000000e+00 1.0000000000e+00 2.0000000000e+00 7.9535069372e-01 4.0249594348e-01 -4.5322653220e-01 0.0000000000e+00
992 1.0000000000e+00 1.0000000000e+00 2.0000000000e+00 1.9836595849e-01 -2.2080063932e-01 9.5493351820e-01 0.0000000000e+00
993 1.0000000000e+00 1.0000000000e+00 2.0000000000e+00 4.2043202617e-01 -7.9515129212e-01 -4.3700267049e-01 0.0000000000e+00
994 1.0000000000e+00 1.0000000000e+00 2.0000000000e+00 6.1877276322e-01 5.0521897297e-01 6.0155968686e-01 -0.0000000000e+00
995 1.0000000000e+00 1.0000000000e+00 2.0000000000e+00 2.1767628573e-01 -7.6421209326e-01 6.0712182562e-01 0.0000000000e+00
996 1.0000000000e+00 1.0000000000e+00 2.0000000000e+00 8.3102284253e-01 -3.4592651909e-01 4.3558682094e-01 0.0000000000e+00
997 1.0000000000e+00 1.0000000000e+00 2.0000000000e+00 8.2784725519e-01 2.6423047199e-01 -4.9482439283e-01 0.0000000000e+00
998 1.0000000000e+00 1.0000000000e+00 2.0000000000e+00 9.9935682319e-01 3.4044609211e-02 1.1265191053e-02 -0.0000000000e+00
999 1.0000000000e+00 1.0000000000e+00 2.0000000000e+00 5.4823054902e-01 -8.1052430836e-01 -2.0613978434e-01 0.0000000000e+00
1000 1.0000000000e+00 1.0000000000e+00 2.0000000000e+00 9.6850872442e-01 -1.6319279238e-01 1.8803979162e-01 0.0000000000e+00
1001 1.0000000000e+00 1.0000000000e+00 2.0000000000e+00 3.4040019584e-01 -5.3279833168e-01 7.7476037872e-01 0.0000000000e+00
1002 1.0000000000e+00 1.0000000000e+00 2.0000000000e+00 8.8929669164e-01 6.6011982130e-03 4.5728308346e-01 -0.0000000000e+00
1003 1.0000000000e+00 1.0000000000e+00 2.0000000000e+00 8.2984267637e-01 -2.5326151693e-01 -4.9721196337e-01 0.0000000000e+00
1004 1.0000000000e+00 1.0000000000e+00 2.0000000000e+00 8.2785948328e-01 5.4316568808e-01 -1.4007037957e-01 0.0000000000e+00
1005 1.0000000000e+00 1.0000000000e+00 2.0000000000e+00 5.9016688421e-01 -2.9976044650e-01 7.4956435581e-01 0.0000000000e+00
1006 1.0000000000e+00 1.0000000000e+00 2.0000000000e+00 5.7512166418e-01 1.1846997357e-01 8.0944421472e-01 -0.0000000000e+00
1007 1.0000000000e+00 1.0000000000e+00 2.0000000000e+00 3.8310140337e-01 7.4781332882e-01 -5.4222554346e-01 0.0000000000e+00
1008 1.0000000000e+00 1.0000000000e+00 2.0000000000e+00 9.0693693301e-01 -1.7122546541e-01 3.8489899914e-01 0.0000000000e+00
1009 1.0000000000e+00 1.0000000000e+00 2.0000000000e+00 8.6647659067e-01 -4.9759489220e-01 4.0219908981e-02 0.0000000000e+00
1010 1.0000000000e+00 1.0000000000e+00 2.0000000000e+00 8.2972411760e-01 -5.1296262680e-01 -2.2006188263e-01 0.0000000000e+00
1011 1.0000000000e+00 1.0000000000e+00 2.0000000000e+00 7.6217303861e-01 3.7222455133e-01 -5.2966134710e-01 0.0000000000e+00
1012 1.0000000000e+00 1.0000000000e+00 2.0000000000e+00 7.9898695862e-01 -5.4463651251e-01 -2.5493314653e-01 0.0000000000e+00
1013 1.0000000000e+00 1.0000000000e+00 2.0000000000e+00 3.8489349779e-01 6.6476432899e-01 -6.4026977303e-01 0.0000000000e+00
1014 1.0000000000e+00 1.0000000000e+00 2.0000000000e+00 3.3617967329e-01 -8.9902580463e-01 2.8059905537e-01 0.0000000000e+00
1015 1.0000000000e+00 1.0000000000e+00 2.0000000000e+00 9.7841959816e-01 8.9585594662e-02 1.8619750579e-01 -0.0000000000e+00
1016 1.0000000000e+00 1.0000000000e+00 2.0000000000e+00 8.8286615605e-01 -1.6102452459e-01 4.4115581487e-01 0.0000000000e+00
1017 1.0000000000e+00 1.0000000000e+00 2.0000000000e+00 8.0599048962e-01 1.3461703746e-01 5.7641788996e-01 -0.0000000000e+00
1018 1.0000000000e+00 1.0000000000e+00 2.0000000000e+00 9.6853159757e-01 5.3695953241e-02 -2.4302939970e-01 0.0000000000e+00
1019 1.0000000000e+00 1.0000000000e+00 2.0000000000e+00 7.4601905041e-01 6.1922907347e-01 2.4497128607e-01 -0.0000000000e+00
1020 1.0000000000e+00 1.0000000000e+00 2.0000000000e+00 7.2525360326e-01 -3.8970816890e-01 -5.6756916235e-01 0.0000000000e+00
1021 1.0000000000e+00 1.0000000000e+00 2.0000000000e+00 6.3352636934e-01 5.0813927537e-01 -5.8347134991e-01 0.0000000000e+00
1022 1.0000000000e+00 1.0000000000e+00 2.0000000000e+00 6.6224899851e-01 -4.2806894789e-01 -6.1496604769e-01 0.0000000000e+00
1023 1.0000000000e+00 1.0000000000e+00 2.0000000000e+00 6.6504869584e-01 -4.7032338843e-02 -7.4531751037e-01 0.0000000000e+00
1024 1.0000000000e+00 1.0000000000e+00 2.0000000000e+00 8.7208205054e-01 -1.0672694439e-01 -4.7757958128e-01 0.0000000000e+00
1025 1.0000000000e+00 1.0000000000e+00 2.0000000000e+00 5.7093558796e-01 6.8714480151e-01 4.4929341879e-01 -0.0000000000e+00
1026 1.0000000000e+00 1.0000000000e+00 2.0000000000e+00 7.4619375160e-01 -6.5348215641e-01 1.2710608296e-01 0.0000000000e+00
1027 1.0000000000e+00 1.0000000000e+00 2.0000000000e+00 6.1543004489e-01 -5.2190017627e-01 5.9064885157e-01 0.0000000000e+00
1028 1.0000000000e+00 1.0000000000e+00 2.0000000000e+00 9.7723311074e-01 1.2256597748e-01 1.7318495442e-01 -0.0000000000e+00
1029 1.0000000000e+00 1.0000000000e+00 2.0000000000e+00 1.2305145004e-01 -2.8859009860e-01 9.4951255686e-01 0.0000000000e+00
1030 1.0000000000e+00 1.0000000000e+00 2.0000000000e+00 9.7979357423e-01 -7.8377579545e-02 -1.8401496384e-01 0.0000000000e+00
1031 1.0000000000e+00 1.0000000000e+00 2.0000000000e+00 8.9138326092e-01 -2.4597722857e-01 3.8069815494e-01 0.0000000000e+00
1032 1.0000000000e+00 1.0000000000e+00 2.0000000000e+00 6.9551956243e-01 -6.4503168904e-01 3.1652276128e-01 0.0000000000e+00
1033 1.0000000000e+00 1.0000000000e+00 2.0000000000e+00 8.4318868539e-01 3.9000247146e-01 3.7004177208e-01 -0.0000000000e+00
1034 1.0000000000e+00 1.0000000000e+00 2.0000000000e+00 7.3898683132e-01 2.8855932345e-01 6.0879551574e-01 -0.0000000000e+00
1035 1.0000000000e+00 1.0000000000e+00 2.0000000000e+00 8.3546020078e-01 -5.3503072144e-01 1.2549254971e-01 0.0000000000e+00
1036 1.0000000000e+00 1.0000000000e+00 2.0000000000e+00 5.3012196223e-01 6.0441370652e-01 -5.9468880646e-01 0.0000000000e+00
1037 1.0000000000e+00 1.0000000000e+00 2.0000000000e+00 5.2188018254e-01 -1.9561196238e-01 -8.3028732090e-01 0.0000000000e+00
1038 1.0000000000e+00 1.0000000000e+00 2.0000000000e+00 4.1488395249e-01 -3.4369647388e-01 8.4246307920e-01 0.0000000000e+00
1039 1.0000000000e+00 1.0000000000e+00 2.0000000000e+00 9.5029276681e-01 2.5864825823e-01 -1.7333417395e-01 0.0000000000e+00
1040 1.0000000000e+00 1.0000000000e+00 2.0000000000e+00 7.0110870147e-01 4.3109151531e-01 -5.6798476577e-01 0.0000000000e+00
1041 1.0000000000e+00 1.0000000000e+00 2.0000000000e+00 9.5799226885e-01 2.7493854802e-01 8.1606419125e-02 -0.0000000000e+00
1042 1.0000000000e+00 1.0000000000e+00 2.0000000000e+00 2.3244674458e-01 1.2460336005e-01 -9.6459448143e-01 0.0000000000e+00
1043 1.0000000000e+00 1.0000000000e+00 2.0000000000e+00 8.3942542412e-01 -5.4300890476e-01 -2.2500815462e-02 0.0000000000e+00
1044 1.0000000000e+00 1.0000000000e+00 2.0000000000e+00 7.0269086366e-01 1.2213083111e-01 7.0093481168e-01 -0.0000000000e+00
1045 1.0000000000e+00 1.0000000000e+00 2.0000000000e+00 9.4471854012e-01 -1.7021960899e-01 2.8023590894e-01 0.0000000000e+00
1046 1.0000000000e+00 1.0000000000e+00 2.0000000000e+00 8.1059328203e-01 -3.0436177044e-01 5.0030235240e-01 0.0000000000e+00
1047 1.0000000000e+00 1.0000000000e+00 2.0000000000e+00 9.1043244931e-01 2.2752677723e-01 -3.4546247392e-01 0.0000000000e+00
1048 1.0000000000e+00 1.0000000000e+00 2.0000000000e+00 7.4907648774e-01 5.9107744624e-01 2.9918534065e-01 -0.0000000000e+00
1049 1.0000000000e+00 1.0000000000e+00 2.0000000000e+00 6.5684737363e-01 -3.0376725325e-01 -6.9012823707e-01 0.0000000000e+00
1050 1.0000000000e+00 1.0000000000e+00 2.0000000000e+00 8.8491508065e-01 -3.2309906557e-01 3.3545833402e-01 0.0000000000e+00
1051 1.0000000000e+00 1.0000000000e+00 2.0000000000e+00 5.6191514330e-01 -7.9649863314e-01 -2.2325164979e-01 0.0000000000e+00
1052 1.0000000000e+00 1.0000000000e+00 2.0000000000e+00 7.0961326186e-01 6.6230852717e-01 2.4040888802e-01 -0.0000000000e+00
1053 1.0000000000e+00 1.0000000000e+00 2.0000000000e+00 5.1628577685e-01 8.5629015918e-01 1.4702377604e-02 -0.0000000000e+00
1054 1.0000000000e+00 1.0000000000e+00 2.0000000000e+00 8.9005426568e-01 1.7278898274e-01 4.2183808693e-01 -0.0000000000e+00
1055 1.0000000000e+00 1.0000000000e+00 2.0000000000e+00 5.6815754248e-01 4.9918216611e-01 -6.5422792050e-01 0.0000000000e+00
1056 1.0000000000e+00 1.0000000000e+00 2.0000000000e+00 5.8914140132e-01 1.6314302777e-01 7.9138913421e-01 -0.0000000000e+00
1057 1.0000000000e+00 1.0000000000e+00 2.0000000000e+00 8.2396325191e-01 5.2384938898e-01 2.1602401988e-01 -0.0000000000e+00
1058 1.0000000000e+00 1.0000000000e+00 2.0000000000e+00 3.7912947183e-01 5.3542997401e-01 7.5470231649e-01 -0.0000000000e+00
1059 1.0000000000e+00 1.0000000000e+00 2.0000000000e+00 8.7498570529e-01 -4.9135181870e-02 4.8164898987e-01 0.0000000000e+00
1060 1.0000000000e+00 1.0000000000e+00 2.0000000000e+00 5.3766053248e-01 -4.8406527682e-01 6.9036364301e-01 0.0000000000e+00
1061 1.0000000000e+00 1.0000000000e+00 2.0000000000e+00 7.9471630603e-01 -4.5476883373e-01 4.0200908049e-01 0.0000000000e+00
1062 1.0000000000e+00 1.0000000000e+00 2.0000000000e+00 7.0626189905e-01 4.7240753291e-02 -7.0637273530e-01 0.0000000000e+00
1063 1.0000000000e+00 1.0000000000e+00 2.0000000000e+00 6.9376898536e-01 -2.7254215866e-01 -6.6663735772e-01 0.0000000000e+00
1064 1.0000000000e+00 1.0000000000e+00 2.0000000000e+00 7.2166789144e-02 5.4327950224e-01 -8.3644446139e-01 0.0000000000e+00
1065 1.0000000000e+00 1.0000000000e+00 2.0000000000e+00 7.5191180040e-01 -4.3750117297e-01 4.9317478451e-01 0.0000000000e+00
1066 1.0000000000e+00 1.0000000000e+00 2.0000000000e+00 9.3249392852e-01 -2.2408852116e-01 2.8326561377e-01 0.0000000000e+00
1067 1.0000000000e+00 1.0000000000e+00 2.0000000000e+00 4.0532775056e-01 9.1363928067e-01 -3.1187809128e-02 0.0000000000e+00
1068 1.0000000000e+00 1.0000000000e+00 2.0000000000e+00 9.4024506551e-01 4.7805871877e-02 3.3712581539e-01 -0.0000000000e+00
1069 1.0000000000e+00 1.0000000000e+00 2.0000000000e+00 7.6302991727e-01 -8.0131971190e-02 -6.4137681011e-01 0.0000000000e+00
1070 1.0000000000e+00 1.0000000000e+00 2.0000000000e+00 8.4806192801e-01 -2.9907840014e-01 4.3742779613e-01 0.0000000000e+00
1071 1.0000000000e+00 1.0000000000e+00 2.0000000000e+00 6.8477236023e-01 6.5240010320e-01 3.2474747114e-01 -0.0000000000e+00
1072 1.0000000000e+00 1.0000000000e+00 2.0000000000e+00 8.9445376880e-01 2.6245991668e-02 4.4638951982e-01 -0.0000000000e+00
1073 1.0000000000e+00 1.0000000000e+00 2.0000000000e+00 9.2978823151e-01 3.7567355797e-02 -3.6617282575e-01 0.0000000000e+00
1074 1.0000000000e+00 1.0000000000e+00 2.0000000000e+00 7.9034911713e-01 5.3547979893e-01 -2.9767374421e-01 0.0000000000e+00
1075 1.0000000000e+00 1.0000000000e+00 2.0000000000e+00 7.5731075864e-01 -5.3970292779e-01 3.6769710984e-01 0.0000000000e+00
1076 1.0000000000e+00 1.0000000000e+00 2.0000000000e+00 6.2115303317e-01 -7.6694036050e-01 1.6115642344e-01 0.0000000000e+00
1077 1.0000000000e+00 1.0000000000e+00 2.0000000000e+00 5.6873588527e-01 5.0157765867e-01 -6.5188905892e-01 0.0000000000e+00
1078 1.0000000000e+00 1.0000000000e+00 2.0000000000e+00 4.9797263016e-01 -6.9341639319e-01 5.2076574894e-01 0.0000000000e+00
1079 1.0000000000e+00 1.0000000000e+00 2.0000000000e+00 6.8731629097e-01 -7.1080930912e-01 -1.4948726445e-01 0.0000000000e+00
1080 1.0000000000e+00 1.0000000000e+00 2.0000000000e+00 4.7062817129e-01 8.8142547344e-01 3.9978233492e-02 -0.0000000000e+00
1081 1.0000000000e+00 1.0000000000e+00 2.0000000000e+00 7.9537658673e-01 -8.4532809599e-02 6.0019187713e-01 0.0000000000e+00
1082 1.0000000000e+00 1.0000000000e+00 2.0000000000e+00 7.9772110963e-01 -8.5175153895e-02 5.9698092466e-01 0.0000000000e+00
1083 1.0000000000e+00 1.0000000000e+00 2.0000000000e+00 3.3771719930e-01 9.0398726835e-01 -2.6221005312e-01 0.0000000000e+00
1084 1.0000000000e+00 1.0000000000e+00 2.0000000000e+00 4.0751772750e-01 -3.4778051094e-01 8.4438025675e-01 0.0000000000e+00
1085 1.0000000000e+00 1.0000000000e+00 2.0000000000e+00 9.5632869405e-01 -3.5367424135e-02 -2.9014578104e-01 0.0000000000e+00
1086 1.0000000000e+00 1.0000000000e+00 2.0000000000e+00 1.4968856605e-01 9.4429710058e-01 -2.9308073806e-01 0.0000000000e+00
1087 1.0000000000e+00 1.0000000000e+00 2.0000000000e+00 9.3245155544e-01 -8.2279314358e-02 3.5180138030e-01 0.0000000000e+00
1088 1.0000000000e+00 1.0000000000e+00 2.0000000000e+00 7.3518669359e-01 6.7627554053e-01 4.6388779364e-02 -0.0000000000e+00
1089 1.0000000000e+00 1.0000000000e+00 2.0000000000e+00 5.8847890978e-01 8.0846418589e-01 -8.8449351551e-03 0.0000000000e+00
1090 1.0000000000e+00 1.0000000000e+00 2.0000000000e+00 9.4260581772e-01 -2.0124922977e-01 2.6644515367e-01 0.0000000000e+00
1091 1.0000000000e+00 1.0000000000e+00 2.0000000000e+00 7.6712858976e-01 -2.7760362487e-01 5.7831648276e-01 0.0000000000e+00
1092 1.0000000000e+00 1.0000000000e+00 2.0000000000e+00 9.0105580028e-01 -1.8811159847e-02 4.3329503234e-01 0.0000000000e+00
1093 1.0000000000e+00 1.0000000000e+00 2.0000000000e+00 9.0389711685e-01 -4.0716013413e-01 -1.3111303262e-01 0.0000000000e+00
1094 1.0000000000e+00 1.0000000000e+00 2.0000000000e+00 7.1591708274e-01 4.9173935526e-02 -6.9645147333e-01 0.0000000000e+00
1095 1.0000000000e+00 1.0000000000e+00 2.0000000000e+00 9.7892822552e-01 1.5314267895e-01 1.3508089856e-01 -0.0000000000e+00
1096 1.0000000000e+00 1.0000000000e+00 2.0000000000e+00 9.7821779066e-01 -1.1975289185e-01 1.6955588731e-01 0.0000000000e+00
1097 1.0000000000e+00 1.0000000000e+00 2.0000000000e+00 6.5167078290e-01 5.5971498983e-01 5.1190264785e-01 -0.0000000000e+00
1098 1.0000000000e+00 1.0000000000e+00 2.0000000000e+00 5.9007714588e-01 -5.9820773216e-01 5.4217752728e-01 0.0000000000e+00
1099 1.0000000000e+00 1.0000000000e+00 2.0000000000e+00 9.7069832527e-01 -1.3917120863e-01 -1.9589827977e-01 0.0000000000e+00
1100 1.0000000000e+00 1.0000000000e+00 2.0000000000e+00 9.5076815450e-01 -2.9974957731e-01 -7.8677234962e-02 0.0000000000e+00
1101 1.0000000000e+00 1.0000000000e+00 2.0000000000e+00 5.0916294885e-01 -2.0870084832e-01 -8.3498326177e-01 0.0000000000e+00
1102 1.0000000000e+00 1.0000000000e+00 2.0000000000e+00 6.0265487206e-01 -8.4148361624e-02 7.9355287059e-01 0.0000000000e+00
1103 1.0000000000e+00 1.0000000000e+00 2.0000000000e+00 6.3370346704e-01 3.5606469324e-01 6.8675894613e-01 -0.0000000000e+00
1104 1.0000000000e+00 1.0000000000e+00 2.0000000000e+00 8.4269141934e-01 -5.3510059439e-01 5.9485508008e-02 0.0000000000e+00
1105 1.0000000000e+00 1.0000000000e+00 2.0000000000e+00 9.0144685559e-01 3.3528322930e-01 2.7382242912e-01 -0.0000000000e+00
1106 1.0000000000e+00 1.0000000000e+00 2.0000000000e+00 9.0263680190e-01 3.4755691776e-01 -2.5387200075e-01 0.0000000000e+00
1107 1.0000000000e+00 1.0000000000e+00 2.0000000000e+00 7.2388508171e-01 2.0338916976e-01 -6.5925961055e-01 0.0000000000e+00
1108 1.0000000000e+00 1.0000000000e+00 2.0000000000e+00 1.8342968869e-01 4.3912997795e-01 8.7949895496e-01 -0.0000000000e+00
1109 1.0000000000e+00 1.0000000000e+00 2.0000000000e+00 8.0051800894e-01 3.2322272554e-01 5.0467612095e-01 -0.0000000000e+00
1110 1.0000000000e+00 1.0000000000e+00 2.0000000000e+00 4.6110275764e-01 5.3749241388e-01 7.0603551746e-01 -0.0000000000e+00
1111 1.0000000000e+00 1.0000000000e+00 2.0000000000e+00 3.7137054586e-01 9.1783259204e-01 -1.4023997525e-01 0.0000000000e+00
1112 1.0000000000e+00 1.0000000000e+00 2.0000000000e+00 4.2485508570e-01 5.1185252243e-01 -7.4666267581e-01 0.0000000000e+00
1113 1.0000000000e+00 1.0000000000e+00 2.0000000000e+00 2.7092910739e-01 -7.9675613284e-01 -5.4016394137e-01 0.0000000000e+00
1114 1.0000000000e+00 1.0000000000e+00 2.0000000000e+00 9.4687583180e-02 9.5045577854e-01 -2.9608795082e-01 0.0000000000e+00
1115 1.0000000000e+00 1.0000000000e+00 2.0000000000e+00 6.6996295792e-01 -6.1972587620e-01 4.0876579282e-01 0.0000000000e+00
1116 1.0000000000e+00 1.0000000000e+00 2.0000000000e+00 2.5692332674e-01 -4.1415864119e-02 -9.6554395569e-01 0.0000000000e+00
1117 1.0000000000e+00 1.0000000000e+00 2.0000000000e+00 7.4762679710e-01 6.4787407179e-01 1.4599095647e-01 -0.0000000000e+00
1118 1.0000000000e+00 1.0000000000e+00 2.0000000000e+00 7.0749079179e-01 -6.5819025074e-01 -2.5737593783e-01 0.0000000000e+00
1119 1.0000000000e+00 1.0000000000e+00 2.0000000000e+00 4.0026566219e-01 2.7971763816e-01 8.7266571067e-01 -0.0000000000e+00
1120 1.0000000000e+00 1.0000000000e+00 2.0000000000e+00 8.8740412781e-01 -3.8741130486e-02 -4.5936155558e-01 0.0000000000e+00
1121 1.0000000000e+00 1.0000000000e+00 2.0000000000e+00 5.7259114491e-01 -4.7149449806e-01 6.7069539962e-01 0.0000000000e+00
1122 1.0000000000e+00 1.0000000000e+00 2.0000000000e+00 6.6881402724e-01 -3.5611760986e-01 -6.5258566097e-01 0.0000000000e+00
1123 1.0000000000e+00 1.0000000000e+00 2.0000000000e+00 8.2329998601e-01 2.5437511264e-01 5.0741544626e-01 -0.0000000000e+00
1124 1.0000000000e+00 1.0000000000e+00 2.0000000000e+00 8.0323937493e-01 4.5493510714e-01 -3.8450039642e-01 0.0000000000e+00
1125 1.0000000000e+00 1.0000000000e+00 2.0000000000e+00 8.3964409179e-01 -4.2931711140e-01 3.3269297705e-01 0.0000000000e+00
1126 1.0000000000e+00 1.0000000000e+00 2.0000000000e+00 9.2295930200e-01 3.7970963552e-01 -6.2981898503e-02 0.0000000000e+00
1127 1.0000000000e+00 1.0000000000e+00 2.0000000000e+00 1.6572413823e-01 4.7846576282e-01 -8.6232593827e-01 0.0000000000e+00
1128 1.0000000000e+00 1.0000000000e+00 2.0000000000e+00 2.8738338250e-01 -5.4871266326e-01 -7.8506382202e-01 0.0000000000e+00
1129 1.0000000000e+00 1.0000000000e+00 2.0000000000e+00 9.4876780937e-01 2.9901556843e-01 1.0212410952e-01 -0.0000000000e+00
1130 1.0000000000e+00 1.0000000000e+00 2.0000000000e+00 8.6476483141e-01 -8.4836163307e-03 5.0210538197e-01 0.0000000000e+00
1131 1.0000000000e+00 1.0000000000e+00 2.0000000000e+00 3.1766830568e-01 -4.5776985671e-01 8.3038160255e-01 0.0000000000e+00
1132 1.0000000000e+00 1.0000000000e+00 2.0000000000e+00 4.1445974367e-01 8.9391467417e-01 1.7070347444e-01 -0.0000000000e+00
1133 1.0000000000e+00 1.0000000000e+00 2.0000000000e+00 7.9570271197e-01 2.4561442227e-01 5.5365219203e-01 -0.0000000000e+00
1134 1.0000000000e+00 1.0000000000e+00 2.0000000000e+00 9.4922201522e-01 2.7029140808e-01 -1.6099726873e-01 0.0000000000e+00
1135 1.0000000000e+00 1.0000000000e+00 2.0000000000e+00 8.4376840904e-01 -4.6469975990e-01 -2.6853119942e-01 0.0000000000e+00
1136 1.0000000000e+00 1.0000000000e+00 2.0000000000e+00 4.6079648744e-01 -7.4280737834e-01 -4.8569928540e-01 0.0000000000e+00
1137 1.0000000000e+00 1.0000000000e+00 2.0000000000e+00 5.4863241299e-01 6.6699312849e-01 5.0410578450e-01 -0.0000000000e+00
1138 1.0000000000e+00 1.0000000000e+00 2.0000000000e+00 8.8054344239e-01 1.1707682162e-01 4.5927798108e-01 -0.0000000000e+00
1139 1.0000000000e+00 1.0000000000e+00 2.0000000000e+00 6.8839842078e-01 7.0726555238e-01 -1.6088210803e-01 0.0000000000e+00
1140 1.0000000000e+00 1.0000000000e+00 2.0000000000e+00 7.4040797930e-01 -6.7105905358e-01 3.8415762395e-02 0.0000000000e+00
1141 1.0000000000e+00 1.0000000000e+00 2.0000000000e+00 7.3300849722e-01 -6.8879498456e-02 6.7672310268e-01 0.0000000000e+00
1142 1.0000000000e+00 1.0000000000e+00 2.0000000000e+00 8.7231694138e-01 -3.0497112211e-01 -3.8217243288e-01 0.0000000000e+00
1143 1.0000000000e+00 1.0000000000e+00 2.0000000000e+00 8.2961857032e-01 -5.3206921310e-01 -1.6921991683e-01 0.0000000000e+00
1144 1.0000000000e+00 1.0000000000e+00 2.0000000000e+00 6.0908326942e-01 5.4998422092e-01 5.7143234740e-01 -0.0000000000e+00
1145 1.0000000000e+00 1.0000000000e+00 2.0000000000e+00 8.8829499199e-01 -1.7290012435e-01 4.2548508105e-01 0.0000000000e+00
1146 1.0000000000e+00 1.0000000000e+00 2.0000000000e+00 5.8753786414e-01 6.2864863759e-01 5.0950971399e-01 -0.0000000000e+00
1147 1.0000000000e+00 1.0000000000e+00 2.0000000000e+00 5.0780126333e-01 4.6122234264e-01 7.2760691834e-01 -0.0000000000e+00
1148 1.0000000000e+00 1.0000000000e+00 2.0000000000e+00 5.0603833758e-01 1.9928588807e-01 8.3917241120e-01 -0.0000000000e+00
1149 1.0000000000e+00 1.0000000000e+00 2.0000000000e+00 9.9975367597e-01 -4.6231985517e-04 -2.2189494004e-02 0.0000000000e+00
1150 1.0000000000e+00 1.0000000000e+00 2.0000000000e+00 8.7542621384e-01 -2.1039152386e-01 4.3516014386e-01 0.0000000000e+00
1151 1.0000000000e+00 1.0000000000e+00 2.0000000000e+00 4.1917783663e-01 -6.9336904321e-01 5.8611373572e-01 0.0000000000e+00
1152 1.0000000000e+00 1.0000000000e+00 2.0000000000e+00 5.9930065280e-01 2.3441893968e-02 -8.0018073281e-01 0.0000000000e+00
1153 1.0000000000e+00 1.0000000000e+00 2.0000000000e+00 7.7960994283e-01 -3.9711960221e-01 -4.8425650081e-01 0.0000000000e+00
1154 1.0000000000e+00 1.0000000000e+00 2.0000000000e+00 8.0808540152e-01 5.1555362683e-01 -2.8496042131e-01 0.0000000000e+00
1155 1.0000000000e+00 1.0000000000e+00 2.0000000000e+00 7.1747436893e-01 2.5705980347e-01 6.4741855655e-01 -0.0000000000e+00
1156 1.0000000000e+00 1.0000000000e+00 2.0000000000e+00 5.3658018541e-01 1.9409114755e-01 -8.2122489677e-01 0.0000000000e+00
1157 1.0000000000e+00 1.0000000000e+00 2.0000000000e+00 7.8646641949e-01 -5.7952481756e-01 -2.1359203367e-01 0.0000000000e+00
1158 1.0000000000e+00 1.0000000000e+00 2.0000000000e+00 7.1297170938e-01 -6.4763374881e-01 -2.6877847575e-01 0.0000000000e+00
1159 1.0000000000e+00 1.0000000000e+00 2.0000000000e+00 8.0674144160e-01 -2.7488226544e-01 -5.2307550750e-01 0.0000000000e+00
1160 1.0000000000e+00 1.0000000000e+00 2.0000000000e+00 5.1144570024e-01 -1.1127694971e-01 8.5208024045e-01 0.0000000000e+00
1161 1.0000000000e+00 1.0000000000e+00 2.0000000000e+00 3.4765800292e-01 2.1783416941e-01 9.1196611102e-01 -0.0000000000e+00
1162 1.0000000000e+00 1.0000000000e+00 2.0000000000e+00 5.5964213441e-01 7.6079501370e-01 3.2862079746e-01 -0.0000000000e+00
1163 1.0000000000e+00 1.0000000000e+00 2.0000000000e+00 9.1795921923e-01 -1.3321258027e-01 3.7363789996e-01 0.0000000000e+00
1164 1.0000000000e+00 1.0000000000e+00 2.0000000000e+00 7.8114519152e-01 3.4651204190e-02 6.2338710591e-01 -0.0000000000e+00
1165 1.0000000000e+00 1.0000000000e+00 2.0000000000e+00 5.9123348611e-01 -8.0071368757e-01 9.6439387332e-02 0.0000000000e+00
1166 1.0000000000e+00 1.0000000000e+00 2.0000000000e+00 6.0877431410e-01 1.5601276268e-01 7.7785207615e-01 -0.0000000000e+00
1167 1.0000000000e+00 1.0000000000e+00 2.0000000000e+00 9.2959200067e-01 -2.6562849826e-01 2.5553906393e-01 0.0000000000e+00
1168 1.0000000000e+00 1.0000000000e+00 2.0000000000e+00 8.5593805321e-01 -5.0944408154e-01 8.8525571712e-02 0.0000000000e+00
1169 1.0000000000e+00 1.0000000000e+00 2.0000000000e+00 4.0541875230e-01 8.4389666267e-01 3.5138875625e-01 -0.0000000000e+00
1170 1.0000000000e+00 1.0000000000e+00 2.0000000000e+00 7.4228891839e-01 -5.3858332711e-01 3.9866672972e-01 0.0000000000e+00
1171 1.0000000000e+00 1.0000000000e+00 2.0000000000e+00 7.4634293967e-01 -6.4042058954e-01 -1.8120067577e-01 0.0000000000e+00
1172 1.0000000000e+00 1.0000000000e+00 2.0000000000e+00 4.1537371312e-01 -8.1182334231e-01 4.1037487658e-01 0.0000000000e+00
1173 1.0000000000e+00 1.0000000000e+00 2.0000000000e+00 7.5870891670e-01 -2.2941617690e-01 6.0969582375e-01 0.0000000000e+00
1174 1.0000000000e+00 1.0000000000e+00 2.0000000000e+00 3.3392787372e-01 5.0879382401e-01 -7.9348662232e-01 0.0000000000e+00
1175 1.0000000000e+00 1.0000000000e+00 2.0000000000e+00 7.5376675198e-01 4.9277633411e-01 -4.3474954647e-01 0.0000000000e+00
1176 1.0000000000e+00 1.0000000000e+00 2.0000000000e+00 9.1188987760e-01 -3.8287549678e-01 1.4786211512e-01 0.0000000000e+00
1177 1.0000000000e+00 1.0000000000e+00 2.0000000000e+00 9.8695375910e-01 -3.6160780637e-02 -1.5689064770e-01 0.0000000000e+00
1178 1.0000000000e+00 1.0000000000e+00 2.0000000000e+00 3.3501832533e-01 8.0787433575e-01 4.8487295174e-01 -0.0000000000e+00
1179 1.0000000000e+00 1.0000000000e+00 2.0000000000e+00 9.7638585675e-01 2.1097079327e-01 4.6497130357e-02 -0.0000000000e+00
1180 1.0000000000e+00 1.0000000000e+00 2.0000000000e+00 5.5521826143e-01 -5.6466609752e-01 -6.1064300576e-01 0.0000000000e+00
1181 1.0000000000e+00 1.0000000000e+00 2.0000000000e+00 9.8552533649e-01 8.3412613597e-03 -1.6932287057e-01 0.0000000000e+00
1182 1.0000000000e+00 1.0000000000e+00 2.0000000000e+00 6.5055477385e-01 -6.8238165818e-01 3.3336730315e-01 0.0000000000e+00
1183 1.0000000000e+00 1.0000000000e+00 2.0000000000e+00 4.2467035639e-01 -8.6725237652e-01 2.5986227856e-01 0.0000000000e+00
1184 1.0000000000e+00 1.0000000000e+00 2.0000000000e+00 5.7761157180e-01 8.0778008769e-01 -1.1771236997e-01 0.0000000000e+00
1185 1.0000000000e+00 1.0000000000e+00 2.0000000000e+00 8.2316268413e-01 -5.6780017343e-01 -2.4816355029e-03 0.0000000000e+00
1186 1.0000000000e+00 1.0000000000e+00 2.0000000000e+00 8.8048605277e-01 -2.0460515383e-01 4.2764593053e-01 0.0000000000e+00
1187 1.0000000000e+00 1.0000000000e+00 2.0000000000e+00 7.8167587290e-01 -4.2948238024e-01 -4.5224740440e-01 0.0000000000e+00
1188 1.0000000000e+00 1.0000000000e+00 2.0000000000e+00 8.3505320574e-01 7.3257207498e-02 5.4527013959e-01 -0.0000000000e+00
1189 1.0000000000e+00 1.0000000000e+00 2.0000000000e+00 7.0920834715e-01 4.5992990133e-01 -5.3431077679e-01 0.0000000000e+00
1190 1.0000000000e+00 1.0000000000e+00 2.0000000000e+00 7.5129305928e-01 -5.3670724828e-01 3.8406258439e-01 0.0000000000e+00
1191 1.0000000000e+00 1.0000000000e+00 2.0000000000e+00 9.0297925943e-01 -2.1653275324e-01 3.7113612571e-01 0.0000000000e+00
1192 1.0000000000e+00 1.0000000000e+00 2.0000000000e+00 2.4460334597e-01 -9.5657219441e-01 1.5855232585e-01 0.0000000000e+00
1193 1.0000000000e+00 1.0000000000e+00 2.0000000000e+00 3.1002503444e-01 -2.4636450984e-01 -9.1825323648e-01 0.0000000000e+00
1194 1.0000000000e+00 1.0000000000e+00 2.0000000000e+00 7.2293479801e-01 6.8322518222e-01 -1.0280383361e-01 0.0000000000e+00
1195 1.0000000000e+00 1.0000000000e+00 2.0000000000e+00 8.4499521445e-01 4.6445623378e-01 2.6507262110e-01 -0.0000000000e+00
1196 1.0000000000e+00 1.0000000000e+00 2.0000000000e+00 6.9341265826e-01 -6.8278902427e-01 2.3016957595e-01 0.0000000000e+00
1197 1.0000000000e+00 1.0000000000e+00 2.0000000000e+00 5.9636543290e-01 -6.9687167619e-01 3.9839444948e-01 0.0000000000e+00
1198 1.0000000000e+00 1.0000000000e+00 2.0000000000e+00 7.1138042853e-01 7.0146937557e-01 -4.3342831473e-02 0.0000000000e+00
1199 1.0000000000e+00 1.0000000000e+00 2.0000000000e+00 6.2061417422e-01 -6.3409062883e-01 4.6126686548e-01 0.0000000000e+00
1200 1.0000000000e+00 1.0000000000e+00 2.0000000000e+00 7.0992188144e-01 -7.0034129797e-01 -7.4384061528e-02 0.0000000000e+00
1201 1.0000000000e+00 1.0000000000e+00 2.0000000000e+00 6.4359366266e-01 7.5090853506e-01 -1.4806609797e-01 0.0000000000e+00
1202 1.0000000000e+00 1.0000000000e+00 2.0000000000e+00 9.1919195624e-01 -3.9262523286e-01 3.0521698936e-02 0.0000000000e+00
1203 1.0000000000e+00 1.0000000000e+00 2.0000000000e+00 8.6378078319e-01 4.0165532548e-01 3.0422977847e-01 -0.0000000000e+00
1204 1.0000000000e+00 1.0000000000e+00 2.0000000000e+00 4.6135707064e-01 -1.1272414640e-01 8.8002438613e-01 0.0000000000e+00
1205 1.0000000000e+00 1.0000000000e+00 2.0000000000e+00 9.0735919511e-01 2.0728961001e-01 3.6569154848e-01 -0.0000000000e+00
1206 1.0000000000e+00 1.0000000000e+00 2.0000000000e+00 9.0978122028e-01 2.4784856859e-01 -3.3297029637e-01 0.0000000000e+00
1207 1.0000000000e+00 1.0000000000e+00 2.0000000000e+00 9.2552659552e-01 -1.7911405250e-01 -3.3364453716e-01 0.0000000000e+00
1208 1.0000000000e+00 1.0000000000e+00 2.0000000000e+00 9.4404560076e-01 5.8195389871e-02 3.2464010887e-01 -0.0000000000e+00
1209 1.0000000000e+00 1.0000000000e+00 2.0000000000e+00 9.1331192932e-01 4.0722477499e-01 -5.4131691758e-03 0.0000000000e+00
1210 1.0000000000e+00 1.0000000000e+00 2.0000000000e+00 3.7192937033e-01 -6.5525736076e-01 -6.5750006438e-01 0.0000000000e+00
1211 1.0000000000e+00 1.0000000000e+00 2.0000000000e+00 8.9638903030e-01 6.2477597043e-02 4.3884308840e-01 -0.0000000000e+00
1212 1.0000000000e+00 1.0000000000e+00 2.0000000000e+00 4.6643410344e-01 7.5211127468e-01 -4.6558335199e-01 0.0000000000e+00
1213 1.0000000000e+00 1.0000000000e+00 2.0000000000e+00 3.2560364602e-01 7.2864598636e-01 6.0254235724e-01 -0.0000000000e+00
1214 1.0000000000e+00 1.0000000000e+00 2.0000000000e+00 3.3678627492e-01 8.3237562731e-01 4.4014295414e-01 -0.0000000000e+00
1215 1.0000000000e+00 1.0000000000e+00 2.0000000000e+00 9.6567739147e-01 1.6688314730e-01 1.9904067611e-01 -0.0000000000e+00
1216 1.0000000000e+00 1.0000000000e+00 2.0000000000e+00 8.8495871748e-01 -3.3943614192e-01 -3.1879644589e-01 0.0000000000e+00
1217 1.0000000000e+00 1.0000000000e+00 2.0000000000e+00 7.5440186029e-01 -5.3832591239e-01 3.7561023049e-01 0.0000000000e+00
1218 1.0000000000e+00 1.0000000000e+00 2.0000000000e+00 9.2880935861e-01 -6.1948836834e-02 3.6534301276e-01 0.0000000000e+00
1219 1.0000000000e+00 1.0000000000e+00 2.0000000000e+00 6.1826871332e-01 6.2292621725e-01 4.7927729552e-01 -0.0000000000e+00
1220 1.0000000000e+00 1.0000000000e+00 2.0000000000e+00 9.1794165246e-01 2.3595036976e-01 3.1892090820e-01 -0.0000000000e+00
1221 1.0000000000e+00 1.0000000000e+00 2.0000000000e+00 4.9770738324e-01 1.2732417357e-01 8.5794866717e-01 -0.0000000000e+00
1222 1.0000000000e+00 1.0000000000e+00 2.0000000000e+00 8.1123678291e-01 -2.8261009107e-01 -5.1188516142e-01 0.0000000000e+00
1223 1.0000000000e+00 1.0000000000e+00 2.0000000000e+00 6.0877075919e-01 7.8355553089e-01 -1.2425334109e-01 0.0000000000e+00
1224 1.0000000000e+00 1.0000000000e+00 2.0000000000e+00 6.3195937395e-01 -5.2036618243e-02 -7.7325257196e-01 0.0000000000e+00
1225 1.0000000000e+00 1.0000000000e+00 2.0000000000e+00 6.3684184248e-01 4.2420866751e-01 6.4380080311e-01 -0.0000000000e+00
1226 1.0000000000e+00 1.0000000000e+00 2.0000000000e+00 9.5272349722e-01 -1.9380419188e-01 -2.3400400221e-01 0.0000000000e+00
1227 1.0000000000e+00 1.0000000000e+00 2.0000000000e+00 7.8111317202e-01 -2.9769000418e-01 -5.4885596827e-01 0.0000000000e+00
1228 1.0000000000e+00 1.0000000000e+00 2.0000000000e+00 9.9685984433e-01 -7.2513193677e-02 -3.1816465844e-02 0.0000000000e+00
1229 1.0000000000e+00 1.0000000000e+00 2.0000000000e+00 3.5941950654e-01 8.0764388723e-01 4.6747082233e-01 -0.0000000000e+00
1230 1.0000000000e+00 1.0000000000e+00 2.0000000000e+00 5.3382722029e-01 -3.3591383351e-03 8.4558690569e-01 0.0000000000e+00
1231 1.0000000000e+00 1.0000000000e+00 2.0000000000e+00 1.5572200734e-01 7.7191131149e-01 6.1636319132e-01 -0.0000000000e+00
1232 1.0000000000e+00 1.0000000000e+00 2.0000000000e+00 1.2908602804e-01 3.9396445752e-01 -9.1001582600e-01 0.0000000000e+00
1233 1.0000000000e+00 1.0000000000e+00 2.0000000000e+00 6.6928906590e-01 -4.6294708926e-01 5.8114726086e-01 0.0000000000e+00
1234 1.0000000000e+00 1.0000000000e+00 2.0000000000e+00 9.8402244910e-01 7.6140671304e-02 1.6094228108e-01 -0.0000000000e+00
1235 1.0000000000e+00 1.0000000000e+00 2.0000000000e+00 4.4603278577e-01 -4.5384782444e-02 8.9386518868e-01 0.0000000000e+00
1236 1.0000000000e+00 1.0000000000e+00 2.0000000000e+00 4.7493551655e-01 8.6101843940e-01 -1.8188870810e-01 0.0000000000e+00
1237 1.0000000000e+00 1.0000000000e+00 2.0000000000e+00 8.7575395319e-01 -4.0902261516e-01 2.5642837940e-01 0.0000000000e+00
1238 1.0000000000e+00 1.0000000000e+00 2.0000000000e+00 8.5001480289e-01 4.7003120366e-01 -2.3779298235e-01 0.0000000000e+00
1239 1.0000000000e+00 1.0000000000e+00 2.0000000000e+00 6.0081629017e-01 -7.2397619057e-01 -3.3893695719e-01 0.0000000000e+00
1240 1.0000000000e+00 1.0000000000e+00 2.0000000000e+00 1.8826445117e-01 -5.6078762228e-01 8.0627150459e-01 0.0000000000e+00
1241 1.0000000000e+00 1.0000000000e+00 2.0000000000e+00 3.0216451697e-01 -2.9832990556e-01 9.0537057172e-01 0.0000000000e+00
1242 1.0000000000e+00 1.0000000000e+00 2.0000000000e+00 5.9221625038e-01 1.2818515105e-01 -7.9551774326e-01 0.0000000000e+00
1243 1.0000000000e+00 1.0000000000e+00 2.0000000000e+00 9.2703121121e-01 -3.5536572083e-01 1.1970103549e-01 0.0000000000e+00
1244 1.0000000000e+00 1.0000000000e+00 2.0000000000e+00 7.8107381255e-01 -5.7931672720e-01 2.3305756574e-01 0.0000000000e+00
1245 1.0000000000e+00 1.0000000000e+00 2.0000000000e+00 5.9534245177e-01 1.8702363544e-01 -7.8140228110e-01 0.0000000000e+00
1246 1.0000000000e+00 1.0000000000e+00 2.0000000000e+00 2.4418320842e-01 7.6701494337e-01 -5.9334866426e-01 0.0000000000e+00
1247 1.0000000000e+00 1.0000000000e+00 2.0000000000e+00 3.5162512031e-01 -8.8270062001e-02 -9.3197004829e-01 0.0000000000e+00
1248 1.0000000000e+00 1.0000000000e+00 2.0000000000e+00 4.6563639410e-01 1.5681956468e-01 8.7097093673e-01 -0.0000000000e+00
1249 1.0000000000e+00 1.0000000000e+00 2.0000000000e+00 9.7696930747e-01 -6.7062231182e-02 -2.0256759221e-01 0.0000000000e+00
1250 1.0000000000e+00 1.0000000000e+00 2.0000000000e+00 1.2898341879e-01 -6.7511595453e-01 7.2634821238e-01 0.0000000000e+00
1251 1.0000000000e+00 1.0000000000e+00 2.0000000000e+00 8.5616775380e-01 -4.4832528599e-01 2.5686808930e-01 0.0000000000e+00
1252 1.0000000000e+00 1.0000000000e+00 2.0000000000e+00 1.1762462270e-01 1.9289151828e-02 9.9287077546e-01 -0.0000000000e+00
1253 1.0000000000e+00 1.0000000000e+00 2.0000000000e+00 4.1105759024e-01 -8.8524129655e-01 2.1766833574e-01 0.0000000000e+00
1254 1.0000000000e+00 1.0000000000e+00 2.0000000000e+00 1.3852987841e-01 -1.2319562405e-01 9.8266592034e-01 0.0000000000e+00
1255 1.0000000000e+00 1.0000000000e+00 2.0000000000e+00 4.8874258255e-01 8.6945797653e-01 -7.1927150996e-02 0.0000000000e+00
1256 1.0000000000e+00 1.0000000000e+00 2.0000000000e+00 8.3830718221e-01 -2.3908155695e-01 -4.8998069082e-01 0.0000000000e+00
1257 1.0000000000e+00 1.0000000000e+00 2.0000000000e+00 5.6500103815e-01 -4.6075372226e-01 -6.8445586732e-01 0.0000000000e+00
1258 1.0000000000e+00 1.0000000000e+00 2.0000000000e+00 2.7509984438e-01 -9.3671670486e-01 -2.1652226318e-01 0.0000000000e+00
1259 1.0000000000e+00 1.0000000000e+00 2.0000000000e+00 9.5513149256e-01 2.8676138600e-01 7.4106271106e-02 -0.0000000000e+00
1260 1.0000000000e+00 1.0000000000e+00 2.0000000000e+00 6.4692486545e-01 -4.9000912430e-01 -5.8427671233e-01 0.0000000000e+00
1261 1.0000000000e+00 1.0000000000e+00 2.0000000000e+00 6.6977586958e-01 3.1652700955e-02 7.4188839528e-01 -0.0000000000e+00
1262 1.0000000000e+00 1.0000000000e+00 2.0000000000e+00 5.3910079592e-01 -2.9210792014e-01 7.8996410984e-01 0.0000000000e+00
1263 1.0000000000e+00 1.0000000000e+00 2.0000000000e+00 4.6404229150e-01 -1.0006705215e-01 8.8014279340e-01 0.0000000000e+00
1264 1.0000000000e+00 1.0000000000e+00 2.0000000000e+00 4.2605885208e-01 -5.5362977892e-01 -7.1551933758e-01 0.0000000000e+00
1265 1.0000000000e+00 1.0000000000e+00 2.0000000000e+00 1.5520540886e-01 8.8271290696e-01 -4.4354166089e-01 0.0000000000e+00
1266 1.0000000000e+00 1.0000000000e+00 2.0000000000e+00 7.2085502869e-01 6.2568182933e-01 -2.9814472334e-01 0.0000000000e+00
1267 1.0000000000e+00 1.0000000000e+00 2.0000000000e+00 4.3363550028e-01 7.4032377688e-01 5.1369344777e-01 -0.0000000000e+00
1268 1.0000000000e+00 1.0000000000e+00 2.0000000000e+00 8.1110177870e-01 -2.9790045702e-01 5.0335794650e-01 0.0000000000e+00
1269 1.0000000000e+00 1.0000000000e+00 2.0000000000e+00 9.2823967199e-01 3.6303325944e-02 -3.7020694195e-01 0.0000000000e+00
1270 1.0000000000e+00 1.0000000000e+00 2.0000000000e+00 8.8402976440e-01 -4.1154689432e-01 2.2163151723e-01 0.0000000000e+00
1271 1.0000000000e+00 1.0000000000e+00 2.0000000000e+00 9.7279060682e-01 1.9273961337e-01 -1.2856856819e-01 0.0000000000e+00
1272 1.0000000000e+00 1.0000000000e+00 2.0000000000e+00 2.8488020978e-01 2.2759573114e-01 -9.3115167897e-01 0.0000000000e+00
1273 1.0000000000e+00 1.0000000000e+00 2.0000000000e+00 6.3800776443e-01 4.0592397856e-01 -6.5434839050e-01 0.0000000000e+00
1274 1.0000000000e+00 1.0000000000e+00 2.0000000000e+00 9.3545179024e-01 2.3804968314e-01 2.6127054272e-01 -0.0000000000e+00
1275 1.0000000000e+00 1.0000000000e+00 2.0000000000e+00 8.2760457774e-01 -5.3394825228e-03 5.6128615948e-01 0.0000000000e+00
1276 1.0000000000e+00 1.0000000000e+00 2.0000000000e+00 9.1418034984e-01 3.5594535307e-01 -1.9384837785e-01 0.0000000000e+00
1277 1.0000000000e+00 1.0000000000e+00 2.0000000000e+00 8.5501361992e-01 2.8655320639e-02 -5.1781326977e-01 0.0000000000e+00
1278 1.0000000000e+00 1.0000000000e+00 2.0000000000e+00 9.5555241208e-01 2.5235440329e-01 -1.5243635693e-01 0.0000000000e+00
1279 1.0000000000e+00 1.0000000000e+00 2.0000000000e+00 6.3960211319e-01 -4.2754359458e-01 -6.3883926894e-01 0.0000000000e+00
1280 1.0000000000e+00 1.0000000000e+00 2.0000000000e+00 6.7493004935e-01 3.7734510061e-02 7.3691623353e-01 -0.0000000000e+00
1281 1.0000000000e+00 1.0000000000e+00 2.0000000000e+00 9.7731772491e-01 1.3899374478e-01 1.5978361460e-01 -0.0000000000e+00
1282 1.0000000000e+00 1.0000000000e+00 2.0000000000e+00 9.1736729732e-01 3.1768510100e-01 2.3981955387e-01 -0.0000000000e+00
1283 1.0000000000e+00 1.0000000000e+00 2.0000000000e+00 5.0710437192e-01 -7.0178565955e-01 -5.0034192711e-01 0.0000000000e+00
1284 1.0000000000e+00 1.0000000000e+00 2.0000000000e+00 5.4057161467e-01 3.6181952623e-01 -7.5951890026e-01 0.0000000000e+00
1285 1.0000000000e+00 1.0000000000e+00 2.0000000000e+00 8.8686295614e-01 4.2825234444e-03 4.6201272387e-01 -0.0000000000e+00
1286 1.0000000000e+00 1.0000000000e+00 2.0000000000e+00 8.7733847586e-01 -5.5786042097e-02 4.7661841790e-01 0.0000000000e+00
1287 1.0000000000e+00 1.0000000000e+00 2.0000000000e+00 7.4943633000e-01 4.8573775771e-01 4.4989334070e-01 -0.0000000000e+00
1288 1.0000000000e+00 1.0000000000e+00 2.0000000000e+00 1.6568886186e-01 4.1384817529e-01 8.9514070897e-01 -0.0000000000e+00
1289 1.0000000000e+00 1.0000000000e+00 2.0000000000e+00 8.7495863375e-01 9.7624948545e-02 -4.7425389681e-01 0.0000000000e+00
1290 1.0000000000e+00 1.0000000000e+00 2.0000000000e+00 4.1085817821e-01 -8.1988664223e-01 -3.9872478139e-01 0.0000000000e+00
1291 1.0000000000e+00 1.0000000000e+00 2.0000000000e+00 8.1473199829e-01 4.3907415194e-02 -5.7817290653e-01 0.0000000000e+00
1292 1.0000000000e+00 1.0000000000e+00 2.0000000000e+00 9.2373319972e-01 -3.7096616253e-02 -3.8123590702e-01 0.0000000000e+00
1293 1.0000000000e+00 1.0000000000e+00 2.0000000000e+00 9.6764941199e-01 -2.4116925048e-01 -7.4108083845e-02 0.0000000000e+00
1294 1.0000000000e+00 1.0000000000e+00 2.0000000000e+00 6.9194059579e-01 2.5840856147e-03 7.2194981432e-01 -0.0000000000e+00
1295 1.0000000000e+00 1.0000000000e+00 2.0000000000e+00 7.6612448868e-01 5.3723484430e-02 -6.4044285855e-01 0.0000000000e+00
1296 1.0000000000e+00 1.0000000000e+00 2.0000000000e+00 6.4948845957e-01 3.1104327135e-01 6.9384207441e-01 -0.0000000000e+00
1297 1.0000000000e+00 1.0000000000e+00 2.0000000000e+00 6.8840424376e-01 4.6344785266e-01 -5.5795670534e-01 0.0000000000e+00
1298 1.0000000000e+00 1.0000000000e+00 2.0000000000e+00 7.5190609006e-01 -5.8493187056e-01 -3.0412487325e-01 0.0000000000e+00
1299 1.0000000000e+00 1.0000000000e+00 2.0000000000e+00 7.6234228099e-01 -6.2125800989e-01 1.8130838859e-01 0.0000000000e+00
1300 1.0000000000e+00 1.0000000000e+00 2.0000000000e+00 4.6414294811e-01 -4.7734395828e-01 7.4613274235e-01 0.0000000000e+00
1301 1.0000000000e+00 1.0000000000e+00 2.0000000000e+00 6.7440587116e-01 -7.3733621059e-01 -3.8884874968e-02 0.0000000000e+00
1302 1.0000000000e+00 1.0000000000e+00 2.0000000000e+00 9.3629227632e-01 -3.5022960746e-01 2.6381724076e-02 0.0000000000e+00
1303 1.0000000000e+00 1.0000000000e+00 2.0000000000e+00 3.7154336331e-01 9.2823910557e-01 1.8102267056e-02 -0.0000000000e+00
1304 1.0000000000e+00 1.0000000000e+00 2.0000000000e+00 4.1179255890e-01 7.3433878366e-01 5.3960489179e-01 -0.0000000000e+00
1305 1.0000000000e+00 1.0000000000e+00 2.0000000000e+00 6.4908955405e-01 -6.3722527821e-01 4.1548368876e-01 0.0000000000e+00
1306 1.0000000000e+00 1.0000000000e+00 2.0000000000e+00 8.6657999024e-01 3.7511358771e-01 3.2913358507e-01 -0.0000000000e+00
1307 1.0000000000e+00 1.0000000000e+00 2.0000000000e+00 8.8485988924e-01 -3.7895667345e-01 -2.7095168583e-01 0.0000000000e+00
1308 1.0000000000e+00 1.0000000000e+00 2.0000000000e+00 8.2414325684e-01 5.5659094982e-01 -1.0485421676e-01 0.0000000000e+00
1309 1.0000000000e+00 1.0000000000e+00 2.0000000000e+00 9.6865517347e-01 -9.2098970783e-02 2.3070529794e-01 0.0000000000e+00
1310 1.0000000000e+00 1.0000000000e+00 2.0000000000e+00 7.5825364847e-01 1.7201413749e-01 6.2885812476e-01 -0.0000000000e+00
1311 1.0000000000e+00 1.0000000000e+00 2.0000000000e+00 6.8129435075e-01 6.6205256075e-01 -3.1228899186e-01 0.0000000000e+00
1312 1.0000000000e+00 1.0000000000e+00 2.0000000000e+00 8.7480810087e-01 4.5174823730e-01 1.7502661727e-01 -0.0000000000e+00
1313 1.0000000000e+00 1.0000000000e+00 2.0000000000e+00 9.4782596926e-01 3.1793949905e-01 2.3246654451e-02 -0.0000000000e+00
1314 1.0000000000e+00 1.0000000000e+00 2.0000000000e+00 9.6564610786e-01 -2.0637285537e-01 -1.5791719011e-01 0.0000000000e+00
1315 1.0000000000e+00 1.0000000000e+00 2.0000000000e+00 9.5555812213e-01 -1.9881375324e-01 2.1767353252e-01 0.0000000000e+00
1316 1.0000000000e+00 1.0000000000e+00 2.0000000000e+00 8.8585775492e-01 4.1553043483e-01 2.0637464907e-01 -0.0000000000e+00
1317 1.0000000000e+00 1.0000000000e+00 2.0000000000e+00 8.9284814678e-01 -4.0177719559e-01 -2.0346319544e-01 0.0000000000e+00
1318 1.0000000000e+00 1.0000000000e+00 2.0000000000e+00 5.0137361239e-01 6.7959282963e-01 -5.3551665401e-01 0.0000000000e+00
1319 1.0000000000e+00 1.0000000000e+00 2.0000000000e+00 1.5694786946e-01 -8.4411325938e-01 -5.1267940431e-01 0.0000000000e+00
1320 1.0000000000e+00 1.0000000000e+00 2.0000000000e+00 9.7329031358e-01 -2.2957110429e-01 1.7531566458e-03 0.0000000000e+00
1321 1.0000000000e+00 1.0000000000e+00 2.0000000000e+00 5.0672546981e-01 -6.0062263146e-01 6.1845109170e-01 0.0000000000e+00
1322 1.0000000000e+00 1.0000000000e+00 2.0000000000e+00 6.0441950361e-01 4.4745986709e-01 6.5913331808e-01 -0.0000000000e+00
1323 1.0000000000e+00 1.0000000000e+00 2.0000000000e+00 7.8789114817e-01 -2.6277092038e-01 5.5693714371e-01 0.0000000000e+00
1324 1.0000000000e+00 1.0000000000e+00 2.0000000000e+00 9.2197661726e-01 -1.0329748298e-01 3.7321407695e-01 0.0000000000e+00
1325 1.0000000000e+00 1.0000000000e+00 2.0000000000e+00 4.4049146787e-01 1.3651032677e-01 -8.8731741638e-01 0.0000000000e+00
1326 1.0000000000e+00 1.0000000000e+00 2.0000000000e+00 8.9920952834e-01 -3.9688002139e-01 1.8414253384e-01 0.0000000000e+00
1327 1.0000000000e+00 1.0000000000e+00 2.0000000000e+00 3.4556620603e-01 -7.5861989515e-01 5.5234034067e-01 0.0000000000e+00
1328 1.0000000000e+00 1.0000000000e+00 2.0000000000e+00 3.8597557261e-01 6.8536365171e-01 -6.1749455242e-01 0.0000000000e+00
1329 1.0000000000e+00 1.0000000000e+00 2.0000000000e+00 6.7333525263e-01 6.7899026521e-01 2.9256086089e-01 -0.0000000000e+00
1330 1.0000000000e+00 1.0000000000e+00 2.0000000000e+00 8.5612061187e-01 4.3579267912e-01 -2.7774491671e-01 0.0000000000e+00
1331 1.0000000000e+00 1.0000000000e+00 2.0000000000e+00 7.8341230401e-01 -1.4349483945e-01 6.0471017271e-01 0.0000000000e+00
1332 1.0000000000e+00 1.0000000000e+00 2.0000000000e+00 3.1078836318e-01 8.6085503224e-01 -4.0291339860e-01 0.0000000000e+00
1333 1.0000000000e+00 1.0000000000e+00 2.0000000000e+00 5.8249208998e-01 -9.6634001682e-02 8.0707176560e-01 0.0000000000e+00
1334 1.0000000000e+00 1.0000000000e+00 2.0000000000e+00 9.2115802430e-01 1.1805206998e-01 -3.7085253543e-01 0.0000000000e+00
1335 1.0000000000e+00 1.0000000000e+00 2.0000000000e+00 9.3365309786e-01 -1.8974046295e-03 -3.5817355111e-01 0.0000000000e+00
1336 1.0000000000e+00 1.0000000000e+00 2.0000000000e+00 7.6675794803e-01 4.2599722308e-01 -4.8021725818e-01 0.0000000000e+00
1337 1.0000000000e+00 1.0000000000e+00 2.0000000000e+00 8.7813900585e-01 -2.1328614932e-01 -4.2822996733e-01 0.0000000000e+00
1338 1.0000000000e+00 1.0000000000e+00 2.0000000000e+00 4.0673362043e-01 -8.3578606182e-01 -3.6882166542e-01 0.0000000000e+00
1339 1.0000000000e+00 1.0000000000e+00 2.0000000000e+00 4.6091207656e-01 -8.1349865654e-01 3.5465475252e-01 0.0000000000e+00
1340 1.0000000000e+00 1.0000000000e+00 2.0000000000e+00 5.0197299539e-01 -5.3089348909e-01 6.8277025063e-01 0.0000000000e+00
1341 1.0000000000e+00 1.0000000000e+00 2.0000000000e+00 5.5030478450e-01 -7.4812838801e-01 3.7076752717e-01 0.0000000000e+00
1342 1.0000000000e+00 1.0000000000e+00 2.0000000000e+00 8.6157387136e-01 4.4609004162e-01 2.4226873293e-01 -0.0000000000e+00
1343 1.0000000000e+00 1.0000000000e+00 2.0000000000e+00 9.0474150923e-01 -1.5986991439e-01 -3.9482200034e-01 0.0000000000e+00
1344 1.0000000000e+00 1.0000000000e+00 2.0000000000e+00 9.7426745226e-01 2.1167408511e-01 -7.7440384591e-02 0.0000000000e+00
1345 1.0000000000e+00 1.0000000000e+00 2.0000000000e+00 6.4538806185e-02 -7.9724855786e-01 -6.0019120244e-01 0.0000000000e+00
1346 1.0000000000e+00 1.0000000000e+00 2.0000000000e+00 5.7590454004e-01 -8.0830712335e-01 1.2236647865e-01 0.0000000000e+00
1347 1.0000000000e+00 1.0000000000e+00 2.0000000000e+00 7.6675821199e-01 4.4126064056e-01 -4.6623051320e-01 0.0000000000e+00
1348 1.0000000000e+00 1.0000000000e+00 2.0000000000e+00 8.3676816527e-01 -3.8286916214e-01 3.9144634660e-01 0.0000000000e+00
1349 1.0000000000e+00 1.0000000000e+00 2.0000000000e+00 4.0228312219e-01 8.8596161240e-01 -2.3073862042e-01 0.0000000000e+00
1350 1.0000000000e+00 1.0000000000e+00 2.0000000000e+00 8.3340911377e-01 1.8537640627e-01 5.2063887396e-01 -0.0000000000e+00
1351 1.0000000000e+00 1.0000000000e+00 2.0000000000e+00 9.5394318444e-01 -7.6461954294e-02 -2.9007924849e-01 0.0000000000e+00
1352 1.0000000000e+00 1.0000000000e+00 2.0000000000e+00 1.3964192887e-01 -3.7911953794e-01 9.1475051662e-01 0.0000000000e+00
1353 1.0000000000e+00 1.0000000000e+00 2.0000000000e+00 4.3827226242e-01 -6.4800558391e-01 6.2290142657e-01 0.0000000000e+00
1354 1.0000000000e+00 1.0000000000e+00 2.0000000000e+00 8.1849832176e-01 2.9028696736e-01 -4.9577613280e-01 0.0000000000e+00
1355 1.0000000000e+00 1.0000000000e+00 2.0000000000e+00 4.7250881755e-01 8.1961851778e-01 -3.2397670078e-01 0.0000000000e+00
1356 1.0000000000e+00 1.0000000000e+00 2.0000000000e+00 2.1171910344e-01 -8.1714291772e-01 5.3614594398e-01 0.0000000000e+00
1357 1.0000000000e+00 1.0000000000e+00 2.0000000000e+00 1.1593021600e-01 9.9236579633e-01 -4.2075067295e-02 0.0000000000e+00
1358 1.0000000000e+00 1.0000000000e+00 2.0000000000e+00 3.0764423514e-01 9.4692116578e-01 9.3248755431e-02 -0.0000000000e+00
1359 1.0000000000e+00 1.0000000000e+00 2.0000000000e+00 5.4451809399e-01 -4.9225786369e-01 -6.7910399863e-01 0.0000000000e+00
1360 1.0000000000e+00 1.0000000000e+00 2.0000000000e+00 9.7042829548e-01 1.1244064113e-01 2.1360249426e-01 -0.0000000000e+00
1361 1.0000000000e+00 1.0000000000e+00 2.0000000000e+00 3.8061224352e-01 2.2937493558e-01 -8.9583562053e-01 0.0000000000e+00
1362 1.0000000000e+00 1.0000000000e+00 2.0000000000e+00 7.4480130534e-01 -4.2736309636e-01 -5.1247614524e-01 0.0000000000e+00
1363 1.0000000000e+00 1.0000000000e+00 2.0000000000e+00 4.4983984827e-01 -6.8680050945e-01 -5.7091958377e-01 0.0000000000e+00
1364 1.0000000000e+00 1.0000000000e+00 2.0000000000e+00 8.8101220235e-01 3.0499469998e-01 3.6165692623e-01 -0.0000000000e+00
1365 1.0000000000e+00 1.0000000000e+00 2.0000000000e+00 9.8810077187e-01 1.1369576111e-01 -1.0358638201e-01 0.0000000000e+00
1366 1.0000000000e+00 1.0000000000e+00 2.0000000000e+00 9.8583987216e-01 -1.0924275036e-01 -1.2722329956e-01 0.0000000000e+00
1367 1.0000000000e+00 1.0000000000e+00 2.0000000000e+00 5.5164545444e-01 7.1655550535e-01 -4.2689050160e-01 0.0000000000e+00
1368 1.0000000000e+00 1.0000000000e+00 2.0000000000e+00 5.6170159079e-01 3.1752388855e-01 -7.6398292069e-01 0.0000000000e+00
1369 1.0000000000e+00 1.0000000000e+00 2.0000000000e+00 8.7865028361e-01 2.9596192866e-01 3.7467347903e-01 -0.0000000000e+00
1370 1.0000000000e+00 1.0000000000e+00 2.0000000000e+00 5.5893991662e-01 8.1762334222e-03 8.2916784719e-01 -0.0000000000e+00
1371 1.0000000000e+00 1.0000000000e+00 2.0000000000e+00 6.9386820992e-01 3.6505689238e-02 -7.1917608547e-01 0.0000000000e+00
1372 1.0000000000e+00 1.0000000000e+00 2.0000000000e+00 7.6294688576e-01 -2.5862008945e-01 5.9247590571e-01 0.0000000000e+00
1373 1.0000000000e+00 1.0000000000e+00 2.0000000000e+00 8.9902481873e-01 3.6388049968e-01 -2.4360902539e-01 0.0000000000e+00
1374 1.0000000000e+00 1.0000000000e+00 2.0000000000e+00 6.0211252838e-01 -1.5630136079e-01 -7.8296257112e-01 0.0000000000e+00
1375 1.0000000000e+00 1.0000000000e+00 2.0000000000e+00 9.4377696272e-01 -2.7430213925e-01 -1.8450848502e-01 0.0000000000e+00
1376 1.0000000000e+00 1.0000000000e+00 2.0000000000e+00 9.5975004809e-02 8.6185664484e-01 4.9798787354e-01 -0.0000000000e+00
1377 1.0000000000e+00 1.0000000000e+00 2.0000000000e+00 8.8999802514e-01 -3.0778119313e-01 -3.3641381124e-01 0.0000000000e+00
1378 1.0000000000e+00 1.0000000000e+00 2.0000000000e+00 3.4599453110e-01 -3.3973134366e-01 -8.7456869289e-01 0.0000000000e+00
1379 1.0000000000e+00 1.0000000000e+00 2.0000000000e+00 8.5505368650e-01 4.8124473745e-01 -1.9309763300e-01 0.0000000000e+00
1380 1.0000000000e+00 1.0000000000e+00 2.0000000000e+00 9.6929258134e-01 8.1322420369e-02 -2.3207446157e-01 0.0000000000e+00
1381 1.0000000000e+00 1.0000000000e+00 2.0000000000e+00 6.2097968197e-01 -4.2336549297e-01 6.5965589055e-01 0.0000000000e+00
1382 1.0000000000e+00 1.0000000000e+00 2.0000000000e+00 8.5303549244e-01 -3.8205519228e-01 -3.5547753614e-01 0.0000000000e+00
1383 1.0000000000e+00 1.0000000000e+00 2.0000000000e+00 2.6153940075e-01 8.4666719931e-01 -4.6341320165e-01 0.0000000000e+00
1384 1.0000000000e+00 1.0000000000e+00 2.0000000000e+00 3.7787144734e-01 4.8038363348e-01 -7.9148261761e-01 0.0000000000e+00
1385 1.0000000000e+00 1.0000000000e+00 2.0000000000e+00 4.9559047070e-01 2.6364753798e-01 -8.2757480693e-01 0.0000000000e+00
1386 1.0000000000e+00 1.0000000000e+00 2.0000000000e+00 9.2653301657e-01 1.3813576516e-01 -3.4993582209e-01 0.0000000000e+00
1387 1.0000000000e+00 1.0000000000e+00 2.0000000000e+00 7.9257734181e-01 3.9535874499e-01 -4.6423336806e-01 0.0000000000e+00
1388 1.0000000000e+00 1.0000000000e+00 2.0000000000e+00 2.0762692136e-01 8.1016473306e-01 -5.4820084535e-01 0.0000000000e+00
1389 1.0000000000e+00 1.0000000000e+00 2.0000000000e+00 6.0343192891e-01 1.3932655264e-01 7.8514840566e-01 -0.0000000000e+00
1390 1.0000000000e+00 1.0000000000e+00 2.0000000000e+00 4.4112433693e-01 7.3705909507e-01 5.1200899381e-01 -0.0000000000e+00
1391 1.0000000000e+00 1.0000000000e+00 2.0000000000e+00 7.5312521959e-01 -3.7671499907e-01 -5.3934053536e-01 0.0000000000e+00
1392 1.0000000000e+00 1.0000000000e+00 2.0000000000e+00 6.9349307690e-01 2.9383951710e-01 6.5781888882e-01 -0.0000000000e+00
1393 1.0000000000e+00 1.0000000000e+00 2.0000000000e+00 3.1330329222e-01 -9.1472033532e-01 -2.5520140133e-01 0.0000000000e+00
1394 1.0000000000e+00 1.0000000000e+00 2.0000000000e+00 9.3657473416e-01 -7.7491512276e-02 -3.4179355299e-01 0.0000000000e+00
1395 1.0000000000e+00 1.0000000000e+00 2.0000000000e+00 9.8656973048e-01 1.6329351749e-01 -3.9235256469e-03 0.0000000000e+00
1396 1.0000000000e+00 1.0000000000e+00 2.0000000000e+00 9.3278121154e-01 -7.4240236422e-02 3.5271461367e-01 0.0000000000e+00
1397 1.0000000000e+00 1.0000000000e+00 2.0000000000e+00 7.6383185356e-01 -6.4435395376e-01 -3.6998402235e-02 0.0000000000e+00
1398 1.0000000000e+00 1.0000000000e+00 2.0000000000e+00 5.7010309995e-01 -3.1275644558e-01 7.5971432866e-01 0.0000000000e+00
1399 1.0000000000e+00 1.0000000000e+00 2.0000000000e+00 3.4414152830e-01 2.8308803039e-01 8.9522498600e-01 -0.0000000000e+00
1400 1.0000000000e+00 1.0000000000e+00 2.0000000000e+00 9.5853131125e-01 1.7998440229e-01 -2.2096004226e-01 0.0000000000e+00
1401 1.0000000000e+00 1.0000000000e+00 2.0000000000e+00 6.1711569851e-01 5.3578934556e-01 -5.7627943902e-01 0.0000000000e+00
1402 1.0000000000e+00 1.0000000000e+00 2.0000000000e+00 7.4938255805e-01 -4.3258499479e-01 5.0129432868e-01 0.0000000000e+00
1403 1.0000000000e+00 1.0000000000e+00 2.0000000000e+00 7.7077094858e-01 1.8818655705e-01 6.0868543976e-01 -0.0000000000e+00
1404 1.0000000000e+00 1.0000000000e+00 2.0000000000e+00 7.9595119356e-01 -2.1575421388e-01 -5.6560747579e-01 0.0000000000e+00
1405 1.0000000000e+00 1.0000000000e+00 2.0000000000e+00 8.6716440834e-01 -4.9672368817e-01 -3.5936979801e-02 0.0000000000e+00
1406 1.0000000000e+00 1.0000000000e+00 2.0000000000e+00 9.9773763172e-01 6.0644048286e-02 -2.9015817249e-02 0.0000000000e+00
1407 1.0000000000e+00 1.0000000000e+00 2.0000000000e+00 5.7802448312e-01 -7.8753727407e-01 -2.1371181262e-01 0.0000000000e+00
1408 1.0000000000e+00 1.0000000000e+00 2.0000000000e+00 9.9848648588e-01 1.8490210168e-02 5.1796231861e-02 -0.0000000000e+00
1409 1.0000000000e+00 1.0000000000e+00 2.0000000000e+00 9.0000684232e-01 2.8147103117e-02 4.3496600368e-01 -0.0000000000e+00
1410 1.0000000000e+00 1.0000000000e+00 2.0000000000e+00 7.2304459282e-01 -1.2557393338e-03 6.9080021708e-01 0.0000000000e+00
1411 1.0000000000e+00 1.0000000000e+00 2.0000000000e+00 7.8511348414e-01 3.2135603172e-01 -5.2945926934e-01 0.0000000000e+00
1412 1.0000000000e+00 1.0000000000e+00 2.0000000000e+00 9.1201593017e-01 -2.3531370126e-01 -3.3593809714e-01 0.0000000000e+00
1413 1.0000000000e+00 1.0000000000e+00 2.0000000000e+00 7.9494965253e-01 -3.6580557819e-01 4.8398484368e-01 0.0000000000e+00
1414 1.0000000000e+00 1.0000000000e+00 2.0000000000e+00 9.0840969062e-01 -3.2923801428e-01 -2.5767065014e-01 0.0000000000e+00
1415 1.0000000000e+00 1.0000000000e+00 2.0000000000e+00 8.7111388339e-01 -3.3910182267e-01 -3.5520494932e-01 0.0000000000e+00
1416 1.0000000000e+00 1.0000000000e+00 2.0000000000e+00 7.1574584302e-01 6.4465328176e-01 2.6857035302e-01 -0.0000000000e+00
1417 1.0000000000e+00 1.0000000000e+00 2.0000000000e+00 8.6727251860e-01 -2.9274541227e-02 -4.9697221221e-01 0.0000000000e+00
1418 1.0000000000e+00 1.0000000000e+00 2.0000000000e+00 5.9749095894e-01 -8.0186916401e-01 3.2245609350e-03 0.0000000000e+00
1419 1.0000000000e+00 1.0000000000e+00 2.0000000000e+00 9.8647878210e-01 -1.5631377036e-01 4.9250559940e-02 0.0000000000e+00
1420 1.0000000000e+00 1.0000000000e+00 2.0000000000e+00 8.7852540596e-01 -4.7194903995e-01 -7.3872963691e-02 0.0000000000e+00
1421 1.0000000000e+00 1.0000000000e+00 2.0000000000e+00 5.8156129772e-01 -4.9258200808e-02 -8.1200990551e-01 0.0000000000e+00
1422 1.0000000000e+00 1.0000000000e+00 2.0000000000e+00 8.4050757580e-01 -5.2668931621e-01 -1.2706446874e-01 0.0000000000e+00
1423 1.0000000000e+00 1.0000000000e+00 2.0000000000e+00 6.6636811984e-01 -4.6217463106e-01 -5.8510523776e-01 0.0000000000e+00
1424 1.0000000000e+00 1.0000000000e+00 2.0000000000e+00 6.7925737974e-01 -3.4508270097e-01 6.4770930328e-01 0.0000000000e+00
1425 1.0000000000e+00 1.0000000000e+00 2.0000000000e+00 6.1556903113e-01 5.8196057557e-01 -5.3141006426e-01 0.0000000000e+00
1426 1.0000000000e+00 1.0000000000e+00 2.0000000000e+00 1.6630552604e-01 7.4713991840e-01 -6.4352499123e-01 0.0000000000e+00
1427 1.0000000000e+00 1.0000000000e+00 2.0000000000e+00 8.1171991303e-01 -5.3779521757e-01 2.2778737182e-01 0.0000000000e+00
1428 1.0000000000e+00 1.0000000000e+00 2.0000000000e+00 7.8376535265e-01 -3.8386617804e-02 6.1986961497e-01 0.0000000000e+00
1429 1.0000000000e+00 1.0000000000e+00 2.0000000000e+00 8.4847340347e-01 3.0683968044e-01 -4.3121026671e-01 0.0000000000e+00
1430 1.0000000000e+00 1.0000000000e+00 2.0000000000e+00 8.8320251026e-01 4.6639608167e-01 4.9274951803e-02 -0.0000000000e+00
1431 1.0000000000e+00 1.0000000000e+00 2.0000000000e+00 8.9857161319e-01 -4.3882541041e-01 -1.1467966589e-03 0.0000000000e+00
1432 1.0000000000e+00 1.0000000000e+00 2.0000000000e+00 8.1166435274e-01 4.2606533854e-01 3.9958641841e-01 -0.0000000000e+00
1433 1.0000000000e+00 1.0000000000e+00 2.0000000000e+00 6.5003952596e-01 4.9699106744e-01 -5.7484649567e-01 0.0000000000e+00
1434 1.0000000000e+00 1.0000000000e+00 2.0000000000e+00 7.9851351428e-01 -2.5193189507e-01 -5.4672341066e-01 0.0000000000e+00
1435 1.0000000000e+00 1.0000000000e+00 2.0000000000e+00 4.5852728895e-01 3.2602951146e-01 8.2671487403e-01 -0.0000000000e+00
1436 1.0000000000e+00 1.0000000000e+00 2.0000000000e+00 9.7891776093e-01 3.3770271055e-03 2.0422686654e-01 -0.0000000000e+00
1437 1.0000000000e+00 1.0000000000e+00 2.0000000000e+00 4.0106477527e-01 5.1197578857e-01 7.5962348434e-01 -0.0000000000e+00
1438 1.0000000000e+00 1.0000000000e+00 2.0000000000e+00 1.3124944424e-01 4.8652011796e-02 9.9015481877e-01 -0.0000000000e+00
1439 1.0000000000e+00 1.0000000000e+00 2.0000000000e+00 2.5168892695e-01 9.6492774578e-01 -7.4613199102e-02 0.0000000000e+00
1440 1.0000000000e+00 1.0000000000e+00 2.0000000000e+00 5.5353161174e-01 -7.1315079626e-01 4.3013799716e-01 0.0000000000e+00
1441 1.0000000000e+00 1.0000000000e+00 2.0000000000e+00 8.0528369524e-01 5.4910691821e-01 2.2360626679e-01 -0.0000000000e+00
1442 1.0000000000e+00 1.0000000000e+00 2.0000000000e+00 4.4503910153e-01 6.1202743871e-01 6.5372977015e-01 -0.0000000000e+00
1443 1.0000000000e+00 1.0000000000e+00 2.0000000000e+00 5.3458340875e-01 8.2503861646e-01 -1.8311706757e-01 0.0000000000e+00
1444 1.0000000000e+00 1.0000000000e+00 2.0000000000e+00 7.2540956090e-01 1.7746390931e-01 -6.6504701326e-01 0.0000000000e+00
1445 1.0000000000e+00 1.0000000000e+00 2.0000000000e+00 9.7312845049e-01 -2.2397850162e-01 -5.3428921486e-02 0.0000000000e+00
1446 1.0000000000e+00 1.0000000000e+00 2.0000000000e+00 3.5080906535e-01 7.9350037878e-01 -4.9728276517e-01 0.0000000000e+00
1447 1.0000000000e+00 1.0000000000e+00 2.0000000000e+00 9.7613157080e-01 -1.8399856429e-01 -1.1537627496e-01 0.0000000000e+00
1448 1.0000000000e+00 1.0000000000e+00 2.0000000000e+00 5.6501456352e-01 -8.2309181158e-01 5.7257425062e-02 0.0000000000e+00
1449 1.0000000000e+00 1.0000000000e+00 2.0000000000e+00 7.7750480992e-01 4.1031035006e-01 -4.7658334757e-01 0.0000000000e+00
1450 1.0000000000e+00 1.0000000000e+00 2.0000000000e+00 3.2477562382e-01 2.5070887902e-01 9.1195715478e-01 -0.0000000000e+00
1451 1.0000000000e+00 1.0000000000e+00 2.0000000000e+00 3.1140501651e-01 9.1439212211e-01 2.5867733322e-01 -0.0000000000e+00
1452 1.0000000000e+00 1.0000000000e+00 2.0000000000e+00 9.5787087148e-01 -4.4745524220e-02 -2.8369214234e-01 0.0000000000e+00
1453 1.0000000000e+00 1.0000000000e+00 2.0000000000e+00 9.9629127542e-01 -5.1036401053e-02 -6.9274672726e-02 0.0000000000e+00
1454 1.0000000000e+00 1.0000000000e+00 2.0000000000e+00 9.9137901433e-01 -9.8542670547e-03 1.3065428949e-01 0.0000000000e+00
1455 1.0000000000e+00 1.0000000000e+00 2.0000000000e+00 1.3280065146e-01 -6.0890808789e-01 -7.8204534873e-01 0.0000000000e+00
1456 1.0000000000e+00 1.0000000000e+00 2.0000000000e+00 8.4070849096e-01 -4.8317394519e-01 2.4444257386e-01 0.0000000000e+00
1457 1.0000000000e+00 1.0000000000e+00 2.0000000000e+00 1.6464701768e-01 7.4221083799e-01 -6.4962637842e-01 0.0000000000e+00
1458 1.0000000000e+00 1.0000000000e+00 2.0000000000e+00 2.2207504181e-01 -4.9612238679e-01 8.3937193969e-01 0.0000000000e+00
1459 1.0000000000e+00 1.0000000000e+00 2.0000000000e+00 9.5181385805e-01 2.5618952229e-01 1.6857434056e-01 -0.0000000000e+00
1460 1.0000000000e+00 1.0000000000e+00 2.0000000000e+00 6.6998541228e-01 7.1474818288e-01 -2.0063544656e-01 0.0000000000e+00
1461 1.0000000000e+00 1.0000000000e+00 2.0000000000e+00 9.7004209064e-01 1.9566095313e-01 -1.4399699238e-01 0.0000000000e+00
1462 1.0000000000e+00 1.0000000000e+00 2.0000000000e+00 6.7815969186e-01 -7.3464406606e-01 -1.9938117639e-02 0.0000000000e+00
1463 1.0000000000e+00 1.0000000000e+00 2.0000000000e+00 8.8936870367e-01 -1.7328076772e-01 -4.2308047045e-01 0.0000000000e+00
1464 1.0000000000e+00 1.0000000000e+00 2.0000000000e+00 3.5897739803e-01 -1.1895352918e-01 -9.2573499750e-01 0.0000000000e+00
1465 1.0000000000e+00 1.0000000000e+00 2.0000000000e+00 5.9027961790e-01 -5.4051987325e-01 5.9950666328e-01 0.0000000000e+00
1466 1.0000000000e+00 1.0000000000e+00 2.0000000000e+00 6.6069479441e-01 5.1222906311e-01 -5.4872923700e-01 0.0000000000e+00
1467 1.0000000000e+00 1.0000000000e+00 2.0000000000e+00 2.8340476441e-01 5.7614122829e-01 7.6664400120e-01 -0.0000000000e+00
1468 1.0000000000e+00 1.0000000000e+00 2.0000000000e+00 2.3086440336e-01 -9.2375186396e-01 -3.0558815600e-01 0.0000000000e+00
1469 1.0000000000e+00 1.0000000000e+00 2.0000000000e+00 5.3602738369e-01 -7.7104369272e-01 3.4375320778e-01 0.0000000000e+00
1470 1.0000000000e+00 1.0000000000e+00 2.0000000000e+00 6.6193697572e-01 -5.6411497128e-01 -4.9357242564e-01 0.0000000000e+00
1471 1.0000000000e+00 1.0000000000e+00 2.0000000000e+00 7.2717317707e-01 -2.0010103162e-01 -6.5664202401e-01 0.0000000000e+00
1472 1.0000000000e+00 1.0000000000e+00 2.0000000000e+00 7.7888245239e-01 4.7360726406e-01 4.1114265746e-01 -0.0000000000e+00
1473 1.0000000000e+00 1.0000000000e+00 2.0000000000e+00 9.1243130568e-01 -2.8088791885e-01 -2.9760895394e-01 0.0000000000e+00
1474 1.0000000000e+00 1.0000000000e+00 2.0000000000e+00 4.6096977225e-01 -7.7171791626e-01 4.3813049060e-01 0.0000000000e+00
1475 1.0000000000e+00 1.0000000000e+00 2.0000000000e+00 7.7918001599e-01 3.7260675166e-01 -5.0402649860e-01 0.0000000000e+00
1476 1.0000000000e+00 1.0000000000e+00 2.0000000000e+00 5.1352415460e-01 -5.2584405595e-01 -6.7807150911e-01 0.0000000000e+00
1477 1.0000000000e+00 1.0000000000e+00 2.0000000000e+00 4.1003082999e-01 4.0040272213e-01 -8.1948299468e-01 0.0000000000e+00
1478 1.0000000000e+00 1.0000000000e+00 2.0000000000e+00 9.5306171151e-01 1.3229318438e-01 -2.7234516228e-01 0.0000000000e+00
1479 1.0000000000e+00 1.0000000000e+00 2.0000000000e+00 6.2518328974e-01 5.6308799696e-01 5.4044219109e-01 -0.0000000000e+00
1480 1.0000000000e+00 1.0000000000e+00 2.0000000000e+00 8.5996293975e-01 -4.3878660074e-01 -2.6063396031e-01 0.0000000000e+00
1481 1.0000000000e+00 1.0000000000e+00 2.0000000000e+00 9.8876769815e-01 -1.4946015353e-01 3.1874304027e-04 0.0000000000e+00
1482 1.0000000000e+00 1.0000000000e+00 2.0000000000e+00 9.0690904310e-01 4.1811890574e-01 -5.1889962511e-02 0.0000000000e+00
1483 1.0000000000e+00 1.0000000000e+00 2.0000000000e+00 6.3158297836e-01 -6.6580208804e-01 -3.9725372371e-01 0.0000000000e+00
1484 1.0000000000e+00 1.0000000000e+00 2.0000000000e+00 3.8921298191e-01 8.3467737350e-01 -3.8964976181e-01 0.0000000000e+00
1485 1.0000000000e+00 1.0000000000e+00 2.0000000000e+00 3.3977503012e-01 9.4013220192e-01 -2.6540004217e-02 0.0000000000e+00
1486 1.0000000000e+00 1.0000000000e+00 2.0000000000e+00 8.6206666477e-01 -3.8566689029e-01 3.2878886116e-01 0.0000000000e+00
1487 1.0000000000e+00 1.0000000000e+00 2.0000000000e+00 6.0305935397e-01 -4.5783266083e-01 6.5322941626e-01 0.0000000000e+00
1488 1.0000000000e+00 1.0000000000e+00 2.0000000000e+00 7.7645218619e-01 -5.6186972431e-01 2.8534963723e-01 0.0000000000e+00
1489 1.0000000000e+00 1.0000000000e+00 2.0000000000e+00 3.8820894052e-01 8.7661602102e-01 -2.8432054126e-01 0.0000000000e+00
1490 1.0000000000e+00 1.0000000000e+00 2.0000000000e+00 8.4705433254e-01 1.7348221243e-01 -5.0239713345e-01 0.0000000000e+00
1491 1.0000000000e+00 1.0000000000e+00 2.0000000000e+00 8.2959210281e-01 3.1558084074e-01 -4.6063616435e-01 0.0000000000e+00
1492 1.0000000000e+00 1.0000000000e+00 2.0000000000e+00 7.1395272177e-01 -5.5742671851e-01 4.2372982498e-01 0.0000000000e+00
1493 1.0000000000e+00 1.0000000000e+00 2.0000000000e+00 5.4768125478e-01 8.2451629912e-01 -1.4219042037e-01 0.0000000000e+00
1494 1.0000000000e+00 1.0000000000e+00 2.0000000000e+00 7.2143651040e-01 -3.1252973772e-01 -6.1794378749e-01 0.0000000000e+00
1495 1.0000000000e+00 1.0000000000e+00 2.0000000000e+00 7.7974470504e-01 -6.1982733732e-01 -8.8387028839e-02 0.0000000000e+00
1496 1.0000000000e+00 1.0000000000e+00 2.0000000000e+00 7.0449194788e-01 -4.0718510731e-01 -5.8128425384e-01 0.0000000000e+00
1497 1.0000000000e+00 1.0000000000e+00 2.0000000000e+00 4.8702017206e-01 -8.0575197327e-01 3.3700906455e-01 0.0000000000e+00
1498 1.0000000000e+00 1.0000000000e+00 2.0000000000e+00 9.1677304081e-01 3.2607299019e-01 -2.3065904864e-01 0.0000000000e+00
1499 1.0000000000e+00 1.0000000000e+00 2.0000000000e+00 1.0061227131e-01 -9.8959964361e-01 -1.0280912517e-01 0.0000000000e+00
1500 1.0000000000e+00 1.0000000000e+00 2.0000000000e+00 9.2749825907e-01 3.5646848073e-01 1.1259308004e-01 -0.0000000000e+00
1501 1.0000000000e+00 1.0000000000e+00 2.0000000000e+00 5.3212851518e-01 -7.4495399554e-01 -4.0234660165e-01 0.0000000000e+00
1502 1.0000000000e+00 1.0000000000e+00 2.0000000000e+00 9.2982672570e-01 -3.5851803718e-01 8.2988415941e-02 0.0000000000e+00
1503 1.0000000000e+00 1.0000000000e+00 2.0000000000e+00 2.7817328554e-01 8.0936550174e-01 5.1724956047e-01 -0.0000000000e+00
1504 1.0000000000e+00 1.0000000000e+00 2.0000000000e+00 7.1754970771e-01 5.8066218251e-01 -3.8464769174e-01 0.0000000000e+00
1505 1.0000000000e+00 1.0000000000e+00 2.0000000000e+00 9.8067996161e-01 -1.7621565586e-01 -8.4940305680e-02 0.0000000000e+00
1506 1.0000000000e+00 1.0000000000e+00 2.0000000000e+00 2.6140143945e-01 9.1984531051e-01 2.9249596954e-01 -0.0000000000e+00
1507 1.0000000000e+00 1.0000000000e+00 2.0000000000e+00 6.4684467441e-01 1.8476736482e-01 7.3990066095e-01 -0.0000000000e+00
1508 1.0000000000e+00 1.0000000000e+00 2.0000000000e+00 8.5977060808e-01 -3.0487251388e-01 -4.0969165450e-01 0.0000000000e+00
1509 1.0000000000e+00 1.0000000000e+00 2.0000000000e+00 8.1158146806e-01 5.5288842260e-01 -1.8881184512e-01 0.0000000000e+00
1510 1.0000000000e+00 1.0000000000e+00 2.0000000000e+00 7.4903944175e-01 -6.2306380222e-01 2.2523634934e-01 0.0000000000e+00
1511 1.0000000000e+00 1.0000000000e+00 2.0000000000e+00 6.2956242826e-01 -6.8676664242e-01 -3.6332179647e-01 0.0000000000e+00
1512 1.0000000000e+00 1.0000000000e+00 2.0000000000e+00 3.7138054386e-01 -8.4240787146e-01 -3.9041704592e-01 0.0000000000e+00
1513 1.0000000000e+00 1.0000000000e+00 2.0000000000e+00 7.8338680461e-01 -3.9269409969e-01 -4.8176390320e-01 0.0000000000e+00
1514 1.0000000000e+00 1.0000000000e+00 2.0000000000e+00 8.3056856378e-01 -3.8663020973e-01 4.0084029462e-01 0.0000000000e+00
1515 1.0000000000e+00 1.0000000000e+00 2.0000000000e+00 9.8759590211e-01 1.1514946015e-01 -1.0674706538e-01 0.0000000000e+00
1516 1.0000000000e+00 1.0000000000e+00 2.0000000000e+00 8.8039046576e-01 2.2722796930e-01 -4.1626923710e-01 0.0000000000e+00
1517 1.0000000000e+00 1.0000000000e+00 2.0000000000e+00 9.6092957521e-01 2.6248237722e-01 -8.7848466846e-02 0.0000000000e+00
1518 1.0000000000e+00 1.0000000000e+00 2.0000000000e+00 5.8834554926e-01 3.2159340146e-01 7.4190781018e-01 -0.0000000000e+00
1519 1.0000000000e+00 1.0000000000e+00 2.0000000000e+00 8.7055890002e-01 -2.0094835153e-01 4.4916251136e-01 0.0000000000e+00
1520 1.0000000000e+00 1.0000000000e+00 2.0000000000e+00 8.5214256927e-01 3.2894350265e-01 -4.0700026254e-01 0.0000000000e+00
1521 1.0000000000e+00 1.0000000000e+00 2.0000000000e+00 5.0333777968e-01 8.4962306936e-01 -1.5745386485e-01 0.0000000000e+00
1522 1.0000000000e+00 1.0000000000e+00 2.0000000000e+00 9.5219593839e-01 2.5830408244e-01 -1.6310087645e-01 0.0000000000e+00
1523 1.0000000000e+00 1.0000000000e+00 2.0000000000e+00 6.9265491578e-01 5.4543934991e-01 4.7193758402e-01 -0.0000000000e+00
1524 1.0000000000e+00 1.0000000000e+00 2.0000000000e+00 7.0188050581e-01 -7.1088182098e-01 4.4841857360e-02 0.0000000000e+00
1525 1.0000000000e+00 1.0000000000e+00 2.0000000000e+00 4.7124987593e-01 -8.8069995587e-01 -4.7865876873e-02 0.0000000000e+00
1526 1.0000000000e+00 1.0000000000e+00 2.0000000000e+00 6.8759865581e-01 -6.1894410613e-01 -3.7962650330e-01 0.0000000000e+00
1527 1.0000000000e+00 1.0000000000e+00 2.0000000000e+00 1.7695150096e-01 9.5112743875e-01 2.5307066516e-01 -0.0000000000e+00
1528 1.0000000000e+00 1.0000000000e+00 2.0000000000e+00 3.0609416454e-01 4.4976882092e-02 9.5093819069e-01 -0.0000000000e+00
1529 1.0000000000e+00 1.0000000000e+00 2.0000000000e+00 4.5477313767e-01 3.0032043260e-01 8.3844441141e-01 -0.0000000000e+00
1530 1.0000000000e+00 1.0000000000e+00 2.0000000000e+00 7.7562026687e-01 2.4730988250e-01 5.8073317766e-01 -0.0000000000e+00
1531 1.0000000000e+00 1.0000000000e+00 2.0000000000e+00 8.8593282935e-01 -3.9889626419e-01 2.3665331667e-01 0.0000000000e+00
1532 1.0000000000e+00 1.0000000000e+00 2.0000000000e+00 7.4291795590e-01 -6.6875605580e-01 -2.8952523657e-02 0.0000000000e+00
1533 1.0000000000e+00 1.0000000000e+00 2.0000000000e+00 4.1840453917e-01 -1.2768699818e-01 8.9924060857e-01 0.0000000000e+00
1534 1.0000000000e+00 1.0000000000e+00 2.0000000000e+00 9.5639556572e-01 1.9380470589e-01 2.1851145930e-01 -0.0000000000e+00
1535 1.0000000000e+00 1.0000000000e+00 2.0000000000e+00 4.1414266007e-01 -2.8683189803e-01 8.6383639619e-01 0.0000000000e+00
1536 1.0000000000e+00 1.0000000000e+00 2.0000000000e+00 6.8542470539e-01 4.6705198993e-01 -5.5861920119e-01 0.0000000000e+00
1537 1.0000000000e+00 1.0000000000e+00 2.0000000000e+00 2.1685906895e-01 -4.5911631172e-01 -8.6150122259e-01 0.0000000000e+00
1538 1.0000000000e+00 1.0000000000e+00 2.0000000000e+00 4.1804654206e-01 3.0993566058e-01 8.5391859973e-01 -0.0000000000e+00
1539 1.0000000000e+00 1.0000000000e+00 2.0000000000e+00 8.8930148250e-01 -4.4427473259e-01 1.0845660521e-01 0.0000000000e+00
1540 1.0000000000e+00 1.0000000000e+00 2.0000000000e+00 7.8099312168e-01 -6.0956371500e-01 -1.3594786224e-01 0.0000000000e+00
1541 1.0000000000e+00 1.0000000000e+00 2.0000000000e+00 8.9186670088e-01 -3.5170801240e-03 -4.5228466480e-01 0.0000000000e+00
1542 1.0000000000e+00 1.0000000000e+00 2.0000000000e+00 8.9005344889e-01 -3.8405831041e-01 -2.4556887489e-01 0.0000000000e+00
1543 1.0000000000e+00 1.0000000000e+00 2.0000000000e+00 6.3617211270e-01 -7.7131438597e-01 1.8951544083e-02 0.0000000000e+00
1544 1.0000000000e+00 1.0000000000e+00 2.0000000000e+00 9.4118318215e-01 -1.8318118185e-01 -2.8393462673e-01 0.0000000000e+00
1545 1.0000000000e+00 1.0000000000e+00 2.0000000000e+00 1.2845819042e-01 -2.9945924805e-01 9.4542194393e-01 0.0000000000e+00
1546 1.0000000000e+00 1.0000000000e+00 2.0000000000e+00 8.6687767859e-01 -8.5878763991e-02 -4.9106815031e-01 0.0000000000e+00
1547 1.0000000000e+00 1.0000000000e+00 2.0000000000e+00 9.8114352115e-01 -1.4229070008e-01 -1.3080805622e-01 0.0000000000e+00
1548 1.0000000000e+00 1.0000000000e+00 2.0000000000e+00 9.7191237234e-01 2.3141275686e-01 4.2830788654e-02 -0.0000000000e+00
1549 1.0000000000e+00 1.0000000000e+00 2.0000000000e+00 9.2389590890e-01 3.6886862788e-01 1.0174617878e-01 -0.0000000000e+00
1550 1.0000000000e+00 1.0000000000e+00 2.0000000000e+00 9.9923909586e-01 -2.1871670382e-02 3.2293332627e-02 0.0000000000e+00
1551 1.0000000000e+00 1.0000000000e+00 2.0000000000e+00 3.3959179155e-01 -1.3334123208e-01 -9.3107332200e-01 0.0000000000e+00
1552 1.0000000000e+00 1.0000000000e+00 2.0000000000e+00 7.7916892378e-01 3.9006548753e-01 4.9065741984e-01 -0.0000000000e+00
1553 1.0000000000e+00 1.0000000000e+00 2.0000000000e+00 5.9761657966e-01 5.9803309533e-01 -5.3405134641e-01 0.0000000000e+00
1554 1.0000000000e+00 1.0000000000e+00 2.0000000000e+00 7.7282803305e-01 -6.3437926098e-01 -1.7314288414e-02 0.0000000000e+00
1555 1.0000000000e+00 1.0000000000e+00 2.0000000000e+00 3.0049873367e-01 8.4962201103e-01 -4.3340852488e-01 0.0000000000e+00
1556 1.0000000000e+00 1.0000000000e+00 2.0000000000e+00 5.7314209857e-01 3.0803964705e-01 7.5935479896e-01 -0.0000000000e+00
1557 1.0000000000e+00 1.0000000000e+00 2.0000000000e+00 7.3958773694e-01 -1.2248186668e-02 -6.7294870629e-01 0.0000000000e+00
1558 1.0000000000e+00 1.0000000000e+00 2.0000000000e+00 9.0297379554e-01 -3.4824640396e-01 -2.5171961920e-01 0.0000000000e+00
1559 1.0000000000e+00 1.0000000000e+00 2.0000000000e+00 5.1596908577e-01 -8.5644112795e-01 -1.6867035168e-02 0.0000000000e+00
1560 1.0000000000e+00 1.0000000000e+00 2.0000000000e+00 8.9927361330e-01 -1.0829141647e-01 4.2376873121e-01 0.0000000000e+00
1561 1.0000000000e+00 1.0000000000e+00 2.0000000000e+00 7.2319188185e-01 -5.6295315772e-01 -4.0009654366e-01 0.0000000000e+00
1562 1.0000000000e+00 1.0000000000e+00 2.0000000000e+00 7.9416889025e-01 -3.8767291895e-02 6.0645929034e-01 0.0000000000e+00
1563 1.0000000000e+00 1.0000000000e+00 2.0000000000e+00 6.6194475745e-01 3.3559846124e-01 -6.7022594018e-01 0.0000000000e+00
1564 1.0000000000e+00 1.0000000000e+00 2.0000000000e+00 9.4288926475e-01 -2.5543682324e-01 -2.1380332960e-01 0.0000000000e+00
1565 1.0000000000e+00 1.0000000000e+00 2.0000000000e+00 7.7000832483e-01 2.5296962465e-01 5.8574187890e-01 -0.0000000000e+00
1566 1.0000000000e+00 1.0000000000e+00 2.0000000000e+00 7.4663070707e-01 -4.3644818894e-01 5.0205135756e-01 0.0000000000e+00
1567 1.0000000000e+00 1.0000000000e+00 2.0000000000e+00 9.4093483630e-01 -1.3644733327e-01 3.0987700636e-01 0.0000000000e+00
1568 1.0000000000e+00 1.0000000000e+00 2.0000000000e+00 5.5497347428e-01 -4.0053077741e-02 8.3090323974e-01 0.0000000000e+00
1569 1.0000000000e+00 1.0000000000e+00 2.0000000000e+00 4.4083402631e-01 8.2919136956e-01 -3.4366703929e-01 0.0000000000e+00
1570 1.0000000000e+00 1.0000000000e+00 2.0000000000e+00 9.0956920317e-01 1.5314384106e-01 -3.8630406236e-01 0.0000000000e+00
1571 1.0000000000e+00 1.0000000000e+00 2.0000000000e+00 9.9006474659e-01 -7.4773473672e-02 -1.1908285009e-01 0.0000000000e+00
1572 1.0000000000e+00 1.0000000000e+00 2.0000000000e+00 7.2585934192e-01 6.8641637091e-01 4.4280712436e-02 -0.0000000000e+00
1573 1.0000000000e+00 1.0000000000e+00 2.0000000000e+00 7.1692314928e-01 -4.0943006885e-01 5.6425899794e-01 0.0000000000e+00
1574 1.0000000000e+00 1.0000000000e+00 2.0000000000e+00 9.6178221882e-01 2.3353326922e-01 1.4295865040e-01 -0.0000000000e+00
1575 1.0000000000e+00 1.0000000000e+00 2.0000000000e+00 7.4140175513e-01 1.3369744451e-01 6.5760811341e-01 -0.0000000000e+00
1576 1.0000000000e+00 1.0000000000e+00 2.0000000000e+00 4.2946477063e-01 3.2289312046e-01 8.4338605843e-01 -0.0000000000e+00
1577 1.0000000000e+00 1.0000000000e+00 2.0000000000e+00 5.0363263608e-01 -7.1404486851e-01 4.8630658399e-01 0.0000000000e+00
1578 1.0000000000e+00 1.0000000000e+00 2.0000000000e+00 7.5739031494e-01 -6.3328703958e-01 1.5908311139e-01 0.0000000000e+00
1579 1.0000000000e+00 1.0000000000e+00 2.0000000000e+00 6.2254419494e-01 -6.1738351597e-01 4.8091196654e-01 0.0000000000e+00
1580 1.0000000000e+00 1.0000000000e+00 2.0000000000e+00 2.6609003818e-01 -8.4008204303e-01 -4.7271371100e-01 0.0000000000e+00
1581 1.0000000000e+00 1.0000000000e+00 2.0000000000e+00 7.0700953577e-01 -2.2947113903e-01 6.6893984234e-01 0.0000000000e+00
1582 1.0000000000e+00 1.0000000000e+00 2.0000000000e+00 4.7059836188e-01 8.7197351572e-01 1.3490503944e-01 -0.0000000000e+00
1583 1.0000000000e+00 1.0000000000e+00 2.0000000000e+00 9.4692158697e-01 -9.7037979004e-02 3.0646882185e-01 0.0000000000e+00
1584 1.0000000000e+00 1.0000000000e+00 2.0000000000e+00 4.1278163538e-01 -7.5622934127e-01 5.0766968089e-01 0.0000000000e+00
1585 1.0000000000e+00 1.0000000000e+00 2.0000000000e+00 4.6998971981e-01 -5.2593885720e-01 -7.0887092038e-01 0.0000000000e+00
1586 1.0000000000e+00 1.0000000000e+00 2.0000000000e+00 7.3661450950e-01 4.5081908828e-01 -5.0414404096e-01 0.0000000000e+00
1587 1.0000000000e+00 1.0000000000e+00 2.0000000000e+00 5.1998478775e-01 -2.7316719535e-02 8.5373861184e-01 0.0000000000e+00
1588 1.0000000000e+00 1.0000000000e+00 2.0000000000e+00 8.2829415309e-01 -5.2005132054e-01 2.0850760170e-01 0.0000000000e+00
1589 1.0000000000e+00 1.0000000000e+00 2.0000000000e+00 9.1228710396e-01 4.0782709067e-01 3.7540698670e-02 -0.0000000000e+00
1590 1.0000000000e+00 1.0000000000e+00 2.0000000000e+00 7.4625923334e-01 -6.5996760210e-01 8.6832717489e-02 0.0000000000e+00
1591 1.0000000000e+00 1.0000000000e+00 2.0000000000e+00 9.1909373048e-01 -1.8489639484e-01 3.4796556981e-01 0.0000000000e+00
1592 1.0000000000e+00 1.0000000000e+00 2.0000000000e+00 8.9813290161e-01 -3.9969772091e-01 1.8330036266e-01 0.0000000000e+00
1593 1.0000000000e+00 1.0000000000e+00 2.0000000000e+00 7.4979150892e-01 3.4105146794e-01 -5.6700669252e-01 0.0000000000e+00
1594 1.0000000000e+00 1.0000000000e+00 2.0000000000e+00 6.0624295535e-01 -7.9359201666e-01 5.1780210333e-02 0.0000000000e+00
1595 1.0000000000e+00 1.0000000000e+00 2.0000000000e+00 9.7512676863e-01 8.6553763980e-02 -2.0404957984e-01 0.0000000000e+00
1596 1.0000000000e+00 1.0000000000e+00 2.0000000000e+00 9.1009146998e-01 4.0446489874e-01 -9.0231158441e-02 0.0000000000e+00
1597 1.0000000000e+00 1.0000000000e+00 2.0000000000e+00 8.3231093300e-01 9.6894717207e-02 -5.4577460970e-01 0.0000000000e+00
1598 1.0000000000e+00 1.0000000000e+00 2.0000000000e+00 4.2211055302e-01 8.0859673860e-01 -4.0987070564e-01 0.0000000000e+00
1599 1.0000000000e+00 1.0000000000e+00 2.0000000000e+00 9.7610068648e-01 2.1435751219e-01 -3.5753416858e-02 0.0000000000e+00
1600 1.0000000000e+00 1.0000000000e+00 2.0000000000e+00 7.0703502088e-01 4.6263226960e-01 5.3485779640e-01 -0.0000000000e+00
1601 1.0000000000e+00 1.0000000000e+00 2.0000000000e+00 9.9303269650e-01 -4.8630714703e-02 1.0733646757e-01 0.0000000000e+00
1602 1.0000000000e+00 1.0000000000e+00 2.0000000000e+00 8.9554465304e-01 -4.0071633434e-01 -1.9345850669e-01 0.0000000000e+00
1603 1.0000000000e+00 1.0000000000e+00 2.0000000000e+00 5.7842737750e-01 7.7054536084e-01 2.6773422614e-01 -0.0000000000e+00
1604 1.0000000000e+00 1.0000000000e+00 2.0000000000e+00 8.0846554276e-01 -5.7559136830e-01 -1.2279268266e-01 0.0000000000e+00
1605 1.0000000000e+00 1.0000000000e+00 2.0000000000e+00 4.1030542751e-01 -7.3074294434e-01 5.4558611186e-01 0.0000000000e+00
1606 1.0000000000e+00 1.0000000000e+00 2.0000000000e+00 7.6628384504e-01 -6.2164066927e-01 -1.6239441842e-01 0.0000000000e+00
1607 1.0000000000e+00 1.0000000000e+00 2.0000000000e+00 8.9183020184e-01 3.8753334186e-01 2.3335980809e-01 -0.0000000000e+00
1608 1.0000000000e+00 1.0000000000e+00 2.0000000000e+00 8.6092671571e-01 4.9452260626e-01 -1.1938417844e-01 0.0000000000e+00
1609 1.0000000000e+00 1.0000000000e+00 2.0000000000e+00 5.6378217292e-01 7.5850094647e-01 3.2684243253e-01 -0.0000000000e+00
1610 1.0000000000e+00 1.0000000000e+00 2.0000000000e+00 1.6469654537e-01 -3.6249515234e-01 -9.1731799965e-01 0.0000000000e+00
1611 1.0000000000e+00 1.0000000000e+00 2.0000000000e+00 8.6202932394e-01 4.5888913139e-01 2.1523524282e-01 -0.0000000000e+00
1612 1.0000000000e+00 1.0000000000e+00 2.0000000000e+00 8.9126391226e-01 -1.9202410797e-01 4.1082280933e-01 0.0000000000e+00
1613 1.0000000000e+00 1.0000000000e+00 2.0000000000e+00 9.7556845863e-01 -1.5448695584e-01 -1.5620487507e-01 0.0000000000e+00
1614 1.0000000000e+00 1.0000000000e+00 2.0000000000e+00 9.8445083209e-01 5.8134316495e-02 1.6576175807e-01 -0.0000000000e+00
1615 1.0000000000e+00 1.0000000000e+00 2.0000000000e+00 4.1727624464e-01 9.0387387068e-01 9.4300379447e-02 -0.0000000000e+00
1616 1.0000000000e+00 1.0000000000e+00 2.0000000000e+00 8.2227724352e-01 5.5313929235e-01 1.3377988656e-01 -0.0000000000e+00
1617 1.0000000000e+00 1.0000000000e+00 2.0000000000e+00 8.9453595991e-02 -8.4679677270e-01 5.2434080511e-01 0.0000000000e+00
1618 1.0000000000e+00 1.0000000000e+00 2.0000000000e+00 5.5508976552e-01 -3.7338273321e-01 7.4327699194e-01 0.0000000000e+00
1619 1.0000000000e+00 1.0000000000e+00 2.0000000000e+00 8.5213462802e-01 -4.0557883572e-01 -3.3071495846e-01 0.0000000000e+00
1620 1.0000000000e+00 1.0000000000e+00 2.0000000000e+00 4.7892562551e-01 4.2627392590e-01 -7.6741174432e-01 0.0000000000e+00
1621 1.0000000000e+00 1.0000000000e+00 2.0000000000e+00 7.3545123361e-01 5.6815788151e-01 -3.6919927499e-01 0.0000000000e+00
1622 1.0000000000e+00 1.0000000000e+00 2.0000000000e+00 8.4921696206e-01 -2.6210185721e-01 -4.5840284445e-01 0.0000000000e+00
1623 1.0000000000e+00 1.0000000000e+00 2.0000000000e+00 6.5415267476e-01 -2.4245427268e-01 -7.1644972173e-01 0.0000000000e+00
1624 1.0000000000e+00 1.0000000000e+00 2.0000000000e+00 6.9226196867e-01 5.8087137611e-01 4.2820767293e-01 -0.0000000000e+00
1625 1.0000000000e+00 1.0000000000e+00 2.0000000000e+00 6.2100276685e-01 -7.6718717449e-01 -1.6055965517e-01 0.0000000000e+00
1626 1.0000000000e+00 1.0000000000e+00 2.0000000000e+00 8.3124661591e-01 4.7422850228e-01 -2.9006273660e-01 0.0000000000e+00
1627 1.0000000000e+00 1.0000000000e+00 2.0000000000e+00 8.2330277690e-01 -2.3940948476e-01 5.1464126938e-01 0.0000000000e+00
1628 1.0000000000e+00 1.0000000000e+00 2.0000000000e+00 5.7871246819e-01 7.2912808490e-01 -3.6532740792e-01 0.0000000000e+00
1629 1.0000000000e+00 1.0000000000e+00 2.0000000000e+00 9.3675676839e-01 -1.9834650295e-01 -2.8834947830e-01 0.0000000000e+00
1630 1.0000000000e+00 1.0000000000e+00 2.0000000000e+00 3.5112882460e-01 -8.6257537790e-01 -3.6424204311e-01 0.0000000000e+00
1631 1.0000000000e+00 1.0000000000e+00 2.0000000000e+00 3.5697077643e-01 6.3483298511e-01 -6.8524371270e-01 0.0000000000e+00
1632 1.0000000000e+00 1.0000000000e+00 2.0000000000e+00 3.8297770698e-01 8.7551639825e-01 -2.9461689082e-01 0.0000000000e+00
1633 1.0000000000e+00 1.0000000000e+00 2.0000000000e+00 8.4887680178e-01 3.9867772257e-01 -3.4707960027e-01 0.0000000000e+00
1634 1.0000000000e+00 1.0000000000e+00 2.0000000000e+00 6.2324182934e-01 -2.1892637859e-01 -7.5076019002e-01 0.0000000000e+00
1635 1.0000000000e+00 1.0000000000e+00 2.0000000000e+00 4.1902104183e-01 -8.8212409100e-01 2.1512427706e-01 0.0000000000e+00
1636 1.0000000000e+00 1.0000000000e+00 2.0000000000e+00 5.4937228761e-01 -1.5592429845e-01 8.2090054377e-01 0.0000000000e+00
1637 1.0000000000e+00 1.0000000000e+00 2.0000000000e+00 5.3911112292e-01 -6.9293556743e-01 -4.7874784233e-01 0.0000000000e+00
1638 1.0000000000e+00 1.0000000000e+00 2.0000000000e+00 3.0622532628e-01 -3.0726127951e-01 -9.0100863240e-01 0.0000000000e+00
1639 1.0000000000e+00 1.0000000000e+00 2.0000000000e+00 7.1872360172e-01 6.9509725696e-01 -1.6618895948e-02 0.0000000000e+00
1640 1.0000000000e+00 1.0000000000e+00 2.0000000000e+00 2.7711235216e-01 -4.7547572684e-01 8.3494405649e-01 0.0000000000e+00
1641 1.0000000000e+00 1.0000000000e+00 2.0000000000e+00 1.1879401449e-01 -4.0053402747e-01 -9.0854855399e-01 0.0000000000e+00
1642 1.0000000000e+00 1.0000000000e+00 2.0000000000e+00 3.2826807795e-01 -8.1892901768e-01 -4.7073913477e-01 0.0000000000e+00
1643 1.0000000000e+00 1.0000000000e+00 2.0000000000e+00 6.1340090749e-01 5.5830778358e-01 -5.5859801779e-01 0.0000000000e+00
1644 1.0000000000e+00 1.0000000000e+00 2.0000000000e+00 4.9608830187e-01 -5.1739714814e-01 6.9727798463e-01 0.0000000000e+00
1645 1.0000000000e+00 1.0000000000e+00 2.0000000000e+00 5.3795815898e-01 -8.0546250041e-01 -2.4865876142e-01 0.0000000000e+00
1646 1.0000000000e+00 1.0000000000e+00 2.0000000000e+00 8.0329751094e-01 5.5468890674e-01 -2.1687168018e-01 0.0000000000e+00
1647 1.0000000000e+00 1.0000000000e+00 2.0000000000e+00 9.4309927312e-01 2.8320423594e-01 1.7423869199e-01 -0.0000000000e+00
1648 1.0000000000e+00 1.0000000000e+00 2.0000000000e+00 5.8747391429e-01 8.0675821477e-01 6.3368627330e-02 -0.0000000000e+00
1649 1.0000000000e+00 1.0000000000e+00 2.0000000000e+00 6.0577193099e-01 -7.2811473243e-01 -3.2076362642e-01 0.0000000000e+00
1650 1.0000000000e+00 1.0000000000e+00 2.0000000000e+00 7.4317322690e-01 3.2917409231e-01 -5.8252722835e-01 0.0000000000e+00
1651 1.0000000000e+00 1.0000000000e+00 2.0000000000e+00 9.5501633739e-01 -1.1254985180e-01 -2.7436531520e-01 0.0000000000e+00
1652 1.0000000000e+00 1.0000000000e+00 2.0000000000e+00 5.9555818682e-01 1.8137675645e-01 -7.8256815571e-01 0.0000000000e+00
1653 1.0000000000e+00 1.0000000000e+00 2.0000000000e+00 9.7116799228e-01 -1.1231586131e-01 -2.1028047476e-01 0.0000000000e+00
1654 1.0000000000e+00 1.0000000000e+00 2.0000000000e+00 9.1131781378e-01 -1.6686376028e-02 -4.1136529647e-01 0.0000000000e+00
1655 1.0000000000e+00 1.0000000000e+00 2.0000000000e+00 8.5371933845e-01 -3.5657347991e-01 -3.7949788481e-01 0.0000000000e+00
1656 1.0000000000e+00 1.0000000000e+00 2.0000000000e+00 5.1980665959e-01 8.0799807749e-01 2.7738086346e-01 -0.0000000000e+00
1657 1.0000000000e+00 1.0000000000e+00 2.0000000000e+00 3.9165481939e-01 6.1753598477e-01 6.8209662802e-01 -0.0000000000e+00
1658 1.0000000000e+00 1.0000000000e+00 2.0000000000e+00 6.4054170302e-01 1.6164997764e-01 -7.5071673181e-01 0.0000000000e+00
1659 1.0000000000e+00 1.0000000000e+00 2.0000000000e+00 5.7193675037e-01 -5.4350211659e-01 6.1440524318e-01 0.0000000000e+00
1660 1.0000000000e+00 1.0000000000e+00 2.0000000000e+00 7.7295588647e-01 5.1147304151e-02 6.3239477452e-01 -0.0000000000e+00
1661 1.0000000000e+00 1.0000000000e+00 2.0000000000e+00 5.6301378645e-01 -4.7265661961e-01 6.7794630776e-01 0.0000000000e+00
1662 1.0000000000e+00 1.0000000000e+00 2.0000000000e+00 7.4531085607e-01 -1.8010573018e-01 6.4192963304e-01 0.0000000000e+00
1663 1.0000000000e+00 1.0000000000e+00 2.0000000000e+00 9.1332930236e-01 2.7767051836e-01 -2.9787357837e-01 0.0000000000e+00
1664 1.0000000000e+00 1.0000000000e+00 2.0000000000e+00 4.8970811776e-01 8.3501777176e-01 2.5086107759e-01 -0.0000000000e+00
1665 1.0000000000e+00 1.0000000000e+00 2.0000000000e+00 6.9590197967e-01 -5.5590494800e-01 4.5463185488e-01 0.0000000000e+00
1666 1.0000000000e+00 1.0000000000e+00 2.0000000000e+00 8.8052831505e-01 3.9220308791e-01 -2.6617029180e-01 0.0000000000e+00
1667 1.0000000000e+00 1.0000000000e+00 2.0000000000e+00 3.1885629301e-01 -9.4091896760e-01 1.1402701796e-01 0.0000000000e+00
1668 1.0000000000e+00 1.0000000000e+00 2.0000000000e+00 3.0606260908e-01 -1.6427361529e-01 9.3773122943e-01 0.0000000000e+00
1669 1.0000000000e+00 1.0000000000e+00 2.0000000000e+00 8.9124873561e-01 3.9661212612e-01 2.1994206666e-01 -0.0000000000e+00
1670 1.0000000000e+00 1.0000000000e+00 2.0000000000e+00 8.6887023249e-01 -4.1455071663e-01 -2.7057757195e-01 0.0000000000e+00
1671 1.0000000000e+00 1.0000000000e+00 2.0000000000e+00 5.7265827903e-01 4.7917350994e-01 -6.6517309238e-01 0.0000000000e+00
1672 1.0000000000e+00 1.0000000000e+00 2.0000000000e+00 6.9604687924e-01 6.9727211835e-01 -1.7126101386e-01 0.0000000000e+00
1673 1.0000000000e+00 1.0000000000e+00 2.0000000000e+00 6.0565985990e-01 -7.8337627765e-01 1.3963431428e-01 0.0000000000e+00
1674 1.0000000000e+00 1.0000000000e+00 2.0000000000e+00 4.8730499771e-01 -1.0237550496e-01 -8.6720994874e-01 0.0000000000e+00
1675 1.0000000000e+00 1.0000000000e+00 2.0000000000e+00 2.6202886638e-01 2.4444629197e-01 9.3358817662e-01 -0.0000000000e+00
1676 1.0000000000e+00 1.0000000000e+00 2.0000000000e+00 8.5998929920e-01 -4.6574963000e-01 2.0855619727e-01 0.0000000000e+00
1677 1.0000000000e+00 1.0000000000e+00 2.0000000000e+00 8.9930243177e-01 2.7979320093e-02 -4.3643131630e-01 0.0000000000e+00
1678 1.0000000000e+00 1.0000000000e+00 2.0000000000e+00 7.0469579492e-01 6.7699884574e-01 2.1231203330e-01 -0.0000000000e+00
1679 1.0000000000e+00 1.0000000000e+00 2.0000000000e+00 7.0194859953e-01 4.5292780199e-01 5.4965859386e-01 -0.0000000000e+00
1680 1.0000000000e+00 1.0000000000e+00 2.0000000000e+00 9.0788159628e-01 1.8259243453e-01 3.7737383321e-01 -0.0000000000e+00
1681 1.0000000000e+00 1.0000000000e+00 2.0000000000e+00 7.5278560202e-01 4.0427222087e-01 -5.1949765044e-01 0.0000000000e+00
1682 1.0000000000e+00 1.0000000000e+00 2.0000000000e+00 4.8638485707e-01 2.5561418698e-01 8.3551849664e-01 -0.0000000000e+00
1683 1.0000000000e+00 1.0000000000e+00 2.0000000000e+00 8.5837308478e-01 2.2023569794e-01 -4.6334855637e-01 0.0000000000e+00
1684 1.0000000000e+00 1.0000000000e+00 2.0000000000e+00 9.2792018314e-01 2.4110112259e-01 2.8431388009e-01 -0.0000000000e+00
1685 1.0000000000e+00 1.0000000000e+00 2.0000000000e+00 6.7272119662e-01 -6.8458337729e-01 -2.8069875518e-01 0.0000000000e+00
1686 1.0000000000e+00 1.0000000000e+00 2.0000000000e+00 3.8724667144e-01 3.9616778016e-01 -8.3252093393e-01 0.0000000000e+00
1687 1.0000000000e+00 1.0000000000e+00 2.0000000000e+00 6.1489354165e-01 -7.3032619442e-01 2.9753921116e-01 0.0000000000e+00
1688 1.0000000000e+00 1.0000000000e+00 2.0000000000e+00 5.8939144040e-01 -2.1421668121e-01 7.7892807336e-01 0.0000000000e+00
1689 1.0000000000e+00 1.0000000000e+00 2.0000000000e+00 1.9068900022e-01 7.0662531187e-01 -6.8140910900e-01 0.0000000000e+00
1690 1.0000000000e+00 1.0000000000e+00 2.0000000000e+00 6.1643612109e-01 -2.8080529199e-01 7.3563231074e-01 0.0000000000e+00
1691 1.0000000000e+00 1.0000000000e+00 2.0000000000e+00 8.7959478127e-01 1.0824341581e-01 -4.6324548967e-01 0.0000000000e+00
1692 1.0000000000e+00 1.0000000000e+00 2.0000000000e+00 8.7145273438e-01 4.4835473114e-01 1.9886720897e-01 -0.0000000000e+00
1693 1.0000000000e+00 1.0000000000e+00 2.0000000000e+00 7.7023299635e-01 4.1508404477e-01 -4.8419662030e-01 0.0000000000e+00
1694 1.0000000000e+00 1.0000000000e+00 2.0000000000e+00 6.4034022234e-01 -7.1633845541e-01 2.7717073611e-01 0.0000000000e+00
1695 1.0000000000e+00 1.0000000000e+00 2.0000000000e+00 5.1925829084e-01 -8.5461190620e-01 3.0524061776e-03 0.0000000000e+00
1696 1.0000000000e+00 1.0000000000e+00 2.0000000000e+00 6.1156572612e-01 6.1935974401e-02 7.8876567985e-01 -0.0000000000e+00
1697 1.0000000000e+00 1.0000000000e+00 2.0000000000e+00 7.6839970902e-01 -8.6619425410e-02 -6.3408119537e-01 0.0000000000e+00
1698 1.0000000000e+00 1.0000000000e+00 2.0000000000e+00 4.4705518605e-01 8.9018565211e-01 -8.7813241636e-02 0.0000000000e+00
1699 1.0000000000e+00 1.0000000000e+00 2.0000000000e+00 9.2287736248e-01 -2.4748987395e-01 -2.9503582174e-01 0.0000000000e+00
1700 1.0000000000e+00 1.0000000000e+00 2.0000000000e+00 4.0372166799e-01 -9.0139980716e-01 -1.5648387279e-01 0.0000000000e+00
1701 1.0000000000e+00 1.0000000000e+00 2.0000000000e+00 8.8943834026e-01 5.2106275214e-02 4.5407529657e-01 -0.0000000000e+00
1702 1.0000000000e+00 1.0000000000e+00 2.0000000000e+00 8.1592581920e-01 -1.3131842094e-01 -5.6304576180e-01 0.0000000000e+00
1703 1.0000000000e+00 1.0000000000e+00 2.0000000000e+00 8.9712799443e-01 -3.0851203753e-01 3.1619880505e-01 0.0000000000e+00
1704 1.0000000000e+00 1.0000000000e+00 2.0000000000e+00 7.2011196948e-01 6.7545653906e-01 1.5873630731e-01 -0.0000000000e+00
1705 1.0000000000e+00 1.0000000000e+00 2.0000000000e+00 6.9545864550e-01 4.8047798616e-01 5.3430157890e-01 -0.0000000000e+00
1706 1.0000000000e+00 1.0000000000e+00 2.0000000000e+00 8.3576283272e-01 -4.9274821749e-01 2.4228017173e-01 0.0000000000e+00
1707 1.0000000000e+00 1.0000000000e+00 2.0000000000e+00 4.0319084434e-01 -7.2205704623e-01 5.6220171206e-01 0.0000000000e+00
1708 1.0000000000e+00 1.0000000000e+00 2.0000000000e+00 2.6362786821e-01 -9.0851838609e-01 -3.2418311067e-01 0.0000000000e+00
1709 1.0000000000e+00 1.0000000000e+00 2.0000000000e+00 2.6810219214e-01 -9.5635133905e-01 1.1624685319e-01 0.0000000000e+00
1710 1.0000000000e+00 1.0000000000e+00 2.0000000000e+00 6.8080222587e-01 -6.6252626999e-01 -3.1235760088e-01 0.0000000000e+00
1711 1.0000000000e+00 1.0000000000e+00 2.0000000000e+00 9.7522147346e-01 -9.9868529773e-02 -1.9740657150e-01 0.0000000000e+00
1712 1.0000000000e+00 1.0000000000e+00 2.0000000000e+00 7.7695691269e-02 -8.7938764982e-01 4.6972411147e-01 0.0000000000e+00
1713 1.0000000000e+00 1.0000000000e+00 2.0000000000e+00 4.4410000943e-01 7.3454271157e-01 -5.1305183607e-01 0.0000000000e+00
1714 1.0000000000e+00 1.0000000000e+00 2.0000000000e+00 6.2955445874e-01 -5.3357771578e-02 -7.7512201085e-01 0.0000000000e+00
1715 1.0000000000e+00 1.0000000000e+00 2.0000000000e+00 8.8270976523e-01 -2.8686078850e-01 -3.7220203973e-01 0.0000000000e+00
1716 1.0000000000e+00 1.0000000000e+00 2.0000000000e+00 5.3510363566e-01 -6.8595237558e-01 4.9308562900e-01 0.0000000000e+00
1717 1.0000000000e+00 1.0000000000e+00 2.0000000000e+00 5.9058670813e-01 1.2788013253e-01 7.9677726617e-01 -0.0000000000e+00
1718 1.0000000000e+00 1.0000000000e+00 2.0000000000e+00 4.9242109319e-01 -5.5974972461e-01 -6.6648459305e-01 0.0000000000e+00
1719 1.0000000000e+00 1.0000000000e+00 2.0000000000e+00 6.8282882261e-01 6.3101329363e-02 7.2784821305e-01 -0.0000000000e+00
1720 1.0000000000e+00 1.0000000000e+00 2.0000000000e+00 5.8668522561e-01 -8.0962644941e-01 1.7477370317e-02 0.0000000000e+00
1721 1.0000000000e+00 1.0000000000e+00 2.0000000000e+00 2.7465478652e-01 -9.6132385113e-01 -2.0523194166e-02 0.0000000000e+00
1722 1.0000000000e+00 1.0000000000e+00 2.0000000000e+00 8.8971841125e-01 -4.2776712461e-01 -1.5942532980e-01 0.0000000000e+00
1723 1.0000000000e+00 1.0000000000e+00 2.0000000000e+00 7.8117608794e-01 1.2063962025e-01 6.1254387733e-01 -0.0000000000e+00
1724 1.0000000000e+00 1.0000000000e+00 2.0000000000e+00 5.1576724296e-01 8.4154794483e-02 -8.5258555093e-01 0.0000000000e+00
1725 1.0000000000e+00 1.0000000000e+00 2.0000000000e+00 5.2379742929e-01 4.4387298992e-01 -7.2705778443e-01 0.0000000000e+00
1726 1.0000000000e+00 1.0000000000e+00 2.0000000000e+00 1.8500862753e-01 -2.5159968428e-01 -9.4998389808e-01 0.0000000000e+00
1727 1.0000000000e+00 1.0000000000e+00 2.0000000000e+00 6.2929706828e-01 -6.5385193065e-01 -4.2007481791e-01 0.0000000000e+00
1728 1.0000000000e+00 1.0000000000e+00 2.0000000000e+00 4.6275431534e-01 8.4890142719e-01 2.5539148488e-01 -0.0000000000e+00
1729 1.0000000000e+00 1.0000000000e+00 2.0000000000e+00 9.5808036411e-01 2.5368245486e-01 -1.3314363676e-01 0.0000000000e+00
1730 1.0000000000e+00 1.0000000000e+00 2.0000000000e+00 8.5660221523e-01 4.7559728123e-01 -2.0009965254e-01 0.0000000000e+00
1731 1.0000000000e+00 1.0000000000e+00 2.0000000000e+00 7.8627961548e-01 -2.7132770038e-03 -6.1786487552e-01 0.0000000000e+00
1732 1.0000000000e+00 1.0000000000e+00 2.0000000000e+00 5.4373067559e-01 -1.2548378606e-01 8.2982574789e-01 0.0000000000e+00
1733 1.0000000000e+00 1.0000000000e+00 2.0000000000e+00 2.9109598540e-01 5.1388038064e-01 -8.0696349464e-01 0.0000000000e+00
1734 1.0000000000e+00 1.0000000000e+00 2.0000000000e+00 5.9052851320e-01 -2.0656620178e-01 7.8013234735e-01 0.0000000000e+00
1735 1.0000000000e+00 1.0000000000e+00 2.0000000000e+00 9.6916495705e-01 2.0347867616e-01 1.3898098565e-01 -0.0000000000e+00
1736 1.0000000000e+00 1.0000000000e+00 2.0000000000e+00 7.2193054772e-01 1.8136864495e-01 -6.6777368838e-01 0.0000000000e+00
1737 1.0000000000e+00 1.0000000000e+00 2.0000000000e+00 9.2976084944e-01 -3.0173896477e-01 2.1094634385e-01 0.0000000000e+00
1738 1.0000000000e+00 1.0000000000e+00 2.0000000000e+00 4.1305657745e-01 7.3194271791e-01 5.4188939972e-01 -0.0000000000e+00
1739 1.0000000000e+00 1.0000000000e+00 2.0000000000e+00 8.9343957985e-01 1.4231841669e-01 4.2604129545e-01 -0.0000000000e+00
1740 1.0000000000e+00 1.0000000000e+00 2.0000000000e+00 4.2560615810e-01 6.5337390420e-01 -6.2606863801e-01 0.0000000000e+00
1741 1.0000000000e+00 1.0000000000e+00 2.0000000000e+00 5.8465816072e-01 5.1443281969e-01 6.2732265153e-01 -0.0000000000e+00
1742 1.0000000000e+00 1.0000000000e+00 2.0000000000e+00 6.3874450028e-01 -3.1864916194e-01 7.0033433084e-01 0.0000000000e+00
1743 1.0000000000e+00 1.0000000000e+00 2.0000000000e+00 8.2888237969e-01 5.4738712698e-01 -1.1541808285e-01 0.0000000000e+00
1744 1.0000000000e+00 1.0000000000e+00 2.0000000000e+00 2.6645211260e-01 -5.9234636394e-01 7.6034798403e-01 0.0000000000e+00
1745 1.0000000000e+00 1.0000000000e+00 2.0000000000e+00 8.7066308222e-01 -4.5270550451e-01 -1.9236299915e-01 0.0000000000e+00
1746 1.0000000000e+00 1.0000000000e+00 2.0000000000e+00 5.8852244874e-01 7.5566410220e-01 2.8742493276e-01 -0.0000000000e+00
1747 1.0000000000e+00 1.0000000000e+00 2.0000000000e+00 7.8200504232e-01 5.9672072465e-01 1.7997913925e-01 -0.0000000000e+00
1748 1.0000000000e+00 1.0000000000e+00 2.0000000000e+00 9.3474887392e-01 2.5713719439e-01 -2.4520400888e-01 0.0000000000e+00
1749 1.0000000000e+00 1.0000000000e+00 2.0000000000e+00 3.8443383273e-01 2.1716135771e-01 8.9724666228e-01 -0.0000000000e+00
1750 1.0000000000e+00 1.0000000000e+00 2.0000000000e+00 1.7558134866e-01 -9.0534476808e-01 -3.8668079978e-01 0.0000000000e+00
1751 1.0000000000e+00 1.0000000000e+00 2.0000000000e+00 9.6878383417e-01 2.4166709568e-01 -5.5271127402e-02 0.0000000000e+00
1752 1.0000000000e+00 1.0000000000e+00 2.0000000000e+00 2.5854218655e-01 2.2005385147e-01 -9.4060206263e-01 0.0000000000e+00
1753 1.0000000000e+00 1.0000000000e+00 2.0000000000e+00 2.7688086800e-01 1.0950729110e-02 -9.6084185300e-01 0.0000000000e+00
1754 1.0000000000e+00 1.0000000000e+00 2.0000000000e+00 3.6662956773e-01 -7.6627638684e-01 5.2763932666e-01 0.0000000000e+00
1755 1.0000000000e+00 1.0000000000e+00 2.0000000000e+00 6.2643314945e-01 1.5188961012e-01 -7.6453322727e-01 0.0000000000e+00
1756 1.0000000000e+00 1.0000000000e+00 2.0000000000e+00 9.6854674195e-01 -1.0640330724e-01 2.2493453464e-01 0.0000000000e+00
1757 1.0000000000e+00 1.0000000000e+00 2.0000000000e+00 3.7112733934e-01 -3.9387422698e-01 -8.4090878894e-01 0.0000000000e+00
1758 1.0000000000e+00 1.0000000000e+00 2.0000000000e+00 7.3504611480e-01 -6.2784084571e-01 -2.5597476746e-01 0.0000000000e+00
1759 1.0000000000e+00 1.0000000000e+00 2.0000000000e+00 9.2787463759e-01 1.8940386971e-01 -3.2120839193e-01 0.0000000000e+00
1760 1.0000000000e+00 1.0000000000e+00 2.0000000000e+00 8.6864823983e-01 8.5077167175e-02 -4.8806978093e-01 0.0000000000e+00
1761 1.0000000000e+00 1.0000000000e+00 2.0000000000e+00 7.8852186605e-01 4.0927282773e-01 4.5905230557e-01 -0.0000000000e+00
1762 1.0000000000e+00 1.0000000000e+00 2.0000000000e+00 3.2892591239e-01 -9.1587812174e-01 -2.3016300806e-01 0.0000000000e+00
1763 1.0000000000e+00 1.0000000000e+00 2.0000000000e+00 1.1658701045e-01 -2.6646805177e-01 9.5676655793e-01 0.0000000000e+00
1764 1.0000000000e+00 1.0000000000e+00 2.0000000000e+00 7.6028907618e-01 6.4926802878e-01 -2.0286632190e-02 0.0000000000e+00
1765 1.0000000000e+00 1.0000000000e+00 2.0000000000e+00 5.7153171100e-01 -2.6482530288e-01 7.7667178543e-01 0.0000000000e+00
1766 1.0000000000e+00 1.0000000000e+00 2.0000000000e+00 3.2840362456e-01 9.3803859043e-01 -1.1061040751e-01 0.0000000000e+00
1767 1.0000000000e+00 1.0000000000e+00 2.0000000000e+00 8.8357593955e-01 3.2157511218e-01 3.4041593129e-01 -0.0000000000e+00
1768 1.0000000000e+00 1.0000000000e+00 2.0000000000e+00 4.2218798410e-01 8.3677906988e-01 3.4865182387e-01 -0.0000000000e+00
1769 1.0000000000e+00 1.0000000000e+00 2.0000000000e+00 9.4664268036e-01 2.0101227323e-01 2.5191606089e-01 -0.0000000000e+00
1770 1.0000000000e+00 1.0000000000e+00 2.0000000000e+00 3.2173952541e-01 -9.4567291086e-01 -4.6759207115e-02 0.0000000000e+00
1771 1.0000000000e+00 1.0000000000e+00 2.0000000000e+00 5.9654573029e-01 -7.7850152443e-01 1.9511168119e-01 0.0000000000e+00
1772 1.0000000000e+00 1.0000000000e+00 2.0000000000e+00 1.5312382362e-01 8.8317177993e-02 9.8425259497e-01 -0.0000000000e+00
1773 1.0000000000e+00 1.0000000000e+00 2.0000000000e+00 8.9798005154e-01 3.9217674495e-01 -1.9957261273e-01 0.0000000000e+00
1774 1.0000000000e+00 1.0000000000e+00 2.0000000000e+00 9.2727933646e-01 3.7284464587e-01 -3.3762437866e-02 0.0000000000e+00
1775 1.0000000000e+00 1.0000000000e+00 2.0000000000e+00 9.3038671779e-01 -3.6310281508e-01 -5.0367658631e-02 0.0000000000e+00
1776 1.0000000000e+00 1.0000000000e+00 2.0000000000e+00 4.5864023628e-01 8.5427601217e-01 -2.4466636201e-01 0.0000000000e+00
1777 1.0000000000e+00 1.0000000000e+00 2.0000000000e+00 7.3211977357e-01 -2.5750781312e-01 6.3062696052e-01 0.0000000000e+00
1778 1.0000000000e+00 1.0000000000e+00 2.0000000000e+00 3.1904257212e-01 -8.6265031872e-01 3.9248727978e-01 0.0000000000e+00
1779 1.0000000000e+00 1.0000000000e+00 2.0000000000e+00 6.9397013599e-01 -6.8903396430e-01 -2.0889625750e-01 0.0000000000e+00
1780 1.0000000000e+00 1.0000000000e+00 2.0000000000e+00 7.2810235907e-01 6.0671928184e-01 3.1899634443e-01 -0.0000000000e+00
1781 1.0000000000e+00 1.0000000000e+00 2.0000000000e+00 4.0805640657e-01 1.0286198456e-01 9.0714352844e-01 -0.0000000000e+00
1782 1.0000000000e+00 1.0000000000e+00 2.0000000000e+00 8.0630121908e-01 -1.6029686278e-02 5.9128791064e-01 0.0000000000e+00
1783 1.0000000000e+00 1.0000000000e+00 2.0000000000e+00 7.1535647139e-03 -8.8215730001e-01 -4.7090054635e-01 0.0000000000e+00
1784 1.0000000000e+00 1.0000000000e+00 2.0000000000e+00 9.9746350195e-01 -5.7982731126e-02 -4.1286379879e-02 0.0000000000e+00
1785 1.0000000000e+00 1.0000000000e+00 2.0000000000e+00 7.5886477752e-01 6.3012986612e-02 -6.4819257397e-01 0.0000000000e+00
1786 1.0000000000e+00 1.0000000000e+00 2.0000000000e+00 4.0289001455e-01 -9.0503702631e-01 1.3633641183e-01 0.0000000000e+00
1787 1.0000000000e+00 1.0000000000e+00 2.0000000000e+00 8.7217944785e-01 -3.0478639844e-01 -3.8263332588e-01 0.0000000000e+00
1788 1.0000000000e+00 1.0000000000e+00 2.0000000000e+00 4.6363258534e-01 5.5554154942e-01 6.9023069526e-01 -0.0000000000e+00
1789 1.0000000000e+00 1.0000000000e+00 2.0000000000e+00 6.0848299372e-01 -1.5683446941e-01 -7.7791477397e-01 0.0000000000e+00
1790 1.0000000000e+00 1.0000000000e+00 2.0000000000e+00 8.9148335650e-01 1.9944503193e-01 4.0679122940e-01 -0.0000000000e+00
1791 1.0000000000e+00 1.0000000000e+00 2.0000000000e+00 3.7100734806e-01 9.0664006450e-01 2.0089136648e-01 -0.0000000000e+00
1792 1.0000000000e+00 1.0000000000e+00 2.0000000000e+00 6.1325508417e-01 5.1104560667e-01 6.0228779636e-01 -0.0000000000e+00
1793 1.0000000000e+00 1.0000000000e+00 2.0000000000e+00 1.8348815152e-02 -9.6286621230e-01 -2.6935474415e-01 0.0000000000e+00
1794 1.0000000000e+00 1.0000000000e+00 2.0000000000e+00 7.5450676208e-01 -4.1163183217e-01 -5.1115436095e-01 0.0000000000e+00
1795 1.0000000000e+00 1.0000000000e+00 2.0000000000e+00 9.4003377304e-01 -1.7276996064e-01 -2.9408680051e-01 0.0000000000e+00
1796 1.0000000000e+00 1.0000000000e+00 2.0000000000e+00 6.6478922016e-01 7.2005462629e-01 -1.9893875419e-01 0.0000000000e+00
1797 1.0000000000e+00 1.0000000000e+00 2.0000000000e+00 6.1384024195e-01 -4.9873768660e-01 -6.1193208555e-01 0.0000000000e+00
1798 1.0000000000e+00 1.0000000000e+00 2.0000000000e+00 9.9819583548e-01 -4.7428926131e-02 -3.6818079705e-02 0.0000000000e+00
1799 1.0000000000e+00 1.0000000000e+00 2.0000000000e+00 5.1270855533e-01 -2.2495127916e-01 -8.2856916386e-01 0.0000000000e+00
1800 1.0000000000e+00 1.0000000000e+00 2.0000000000e+00 8.4656746858e-01 -4.2577221246e-01 3.1943942188e-01 0.0000000000e+00
1801 1.0000000000e+00 1.0000000000e+00 2.0000000000e+00 1.6234258525e-01 9.1671844224e-01 3.6506462808e-01 -0.0000000000e+00
1802 1.0000000000e+00 1.0000000000e+00 2.0000000000e+00 6.0754612217e-01 -2.2717562517e-02 7.9395945853e-01 0.0000000000e+00
1803 1.0000000000e+00 1.0000000000e+00 2.0000000000e+00 1.6699635816e-01 -3.2321451282e-01 9.3147441997e-01 0.0000000000e+00
1804 1.0000000000e+00 1.0000000000e+00 2.0000000000e+00 6.7176037276e-01 7.3179979990e-01 1.1492194942e-01 -0.0000000000e+00
1805 1.0000000000e+00 1.0000000000e+00 2.0000000000e+00 9.3954853891e-01 -3.3810771272e-01 5.4145337979e-02 0.0000000000e+00
1806 1.0000000000e+00 1.0000000000e+00 2.0000000000e+00 6.5850976461e-01 5.6338487836e-01 -4.9896128983e-01 0.0000000000e+00
1807 1.0000000000e+00 1.0000000000e+00 2.0000000000e+00 8.5993948393e-01 -4.8657818137e-01 1.5409658460e-01 0.0000000000e+00
1808 1.0000000000e+00 1.0000000000e+00 2.0000000000e+00 8.8496389422e-01 -4.5578483393e-01 -9.5389156074e-02 0.0000000000e+00
1809 1.0000000000e+00 1.0000000000e+00 2.0000000000e+00 8.6714074790e-01 -4.8524423571e-01 1.1227179093e-01 0.0000000000e+00
1810 1.0000000000e+00 1.0000000000e+00 2.0000000000e+00 6.2227414191e-01 -7.8225570681e-01 -2.9170215362e-02 0.0000000000e+00
1811 1.0000000000e+00 1.0000000000e+00 2.0000000000e+00 7.3571048506e-01 4.2621027744e-01 -5.2637902844e-01 0.0000000000e+00
1812 1.0000000000e+00 1.0000000000e+00 2.0000000000e+00 9.2183528558e-01 -2.8645664798e-01 2.6107909740e-01 0.0000000000e+00
1813 1.0000000000e+00 1.0000000000e+00 2.0000000000e+00 7.2797685289e-01 6.6265530884e-01 -1.7589099840e-01 0.0000000000e+00
1814 1.0000000000e+00 1.0000000000e+00 2.0000000000e+00 7.6905696359e-01 3.3917278847e-01 -5.4176859111e-01 0.0000000000e+00
1815 1.0000000000e+00 1.0000000000e+00 2.0000000000e+00 6.6821170566e-01 7.4128324387e-01 -6.3184402921e-02 0.0000000000e+00
1816 1.0000000000e+00 1.0000000000e+00 2.0000000000e+00 6.3776353196e-01 -7.5391972663e-01 -1.5767917778e-01 0.0000000000e+00
1817 1.0000000000e+00 1.0000000000e+00 2.0000000000e+00 3.6489386079e-01 9.3077313811e-01 -2.2667945020e-02 0.0000000000e+00
1818 1.0000000000e+00 1.0000000000e+00 2.0000000000e+00 8.3220098800e-01 2.3843528484e-01 -5.0058978267e-01 0.0000000000e+00
1819 1.0000000000e+00 1.0000000000e+00 2.0000000000e+00 7.2483548785e-01 -6.4624119206e-01 -2.3871706524e-01 0.0000000000e+00
1820 1.0000000000e+00 1.0000000000e+00 2.0000000000e+00 6.7802120257e-01 3.4681760358e-02 7.3422368823e-01 -0.0000000000e+00
1821 1.0000000000e+00 1.0000000000e+00 2.0000000000e+00 2.8186650069e-01 9.5872924671e-01 -3.7276095540e-02 0.0000000000e+00
1822 1.0000000000e+00 1.0000000000e+00 2.0000000000e+00 5.3268127862e-01 -4.2249068679e-02 8.4526071221e-01 0.0000000000e+00
1823 1.0000000000e+00 1.0000000000e+00 2.0000000000e+00 5.3800421942e-01 7.9865021314e-01 2.6964661492e-01 -0.0000000000e+00
1824 1.0000000000e+00 1.0000000000e+00 2.0000000000e+00 4.0283407843e-01 3.1606506794e-01 8.5896890403e-01 -0.0000000000e+00
1825 1.0000000000e+00 1.0000000000e+00 2.0000000000e+00 5.8453705446e-01 7.3411900162e-01 3.4552239206e-01 -0.0000000000e+00
1826 1.0000000000e+00 1.0000000000e+00 2.0000000000e+00 6.7509567222e-01 1.0171673852e-01 7.3068429466e-01 -0.0000000000e+00
1827 1.0000000000e+00 1.0000000000e+00 2.0000000000e+00 9.9480157059e-01 2.3876792647e-02 -9.8993605436e-02 0.0000000000e+00
1828 1.0000000000e+00 1.0000000000e+00 2.0000000000e+00 4.8565466843e-01 7.8917211001e-01 -3.7596133287e-01 0.0000000000e+00
1829 1.0000000000e+00 1.0000000000e+00 2.0000000000e+00 7.0453100125e-01 -6.1398531073e-01 3.5589058218e-01 0.0000000000e+00
1830 1.0000000000e+00 1.0000000000e+00 2.0000000000e+00 8.0854824425e-01 -5.8554700566e-01 5.8175947706e-02 0.0000000000e+00
1831 1.0000000000e+00 1.0000000000e+00 2.0000000000e+00 7.7637403769e-01 -4.8438328552e-01 -4.0325697304e-01 0.0000000000e+00
1832 1.0000000000e+00 1.0000000000e+00 2.0000000000e+00 5.2357963079e-01 -2.5323964059e-01 8.1347037724e-01 0.0000000000e+00
1833 1.0000000000e+00 1.0000000000e+00 2.0000000000e+00 8.6734897428e-01 4.4826959641e-01 -2.1624089751e-01 0.0000000000e+00
1834 1.0000000000e+00 1.0000000000e+00 2.0000000000e+00 7.9804930840e-01 -4.7868044802e-01 -3.6603596824e-01 0.0000000000e+00
1835 1.0000000000e+00 1.0000000000e+00 2.0000000000e+00 7.3545725155e-01 -6.5883777423e-01 1.5822584616e-01 0.0000000000e+00
1836 1.0000000000e+00 1.0000000000e+00 2.0000000000e+00 4.0765998510e-01 -3.1359584377e-01 -8.5759604903e-01 0.0000000000e+00
1837 1.0000000000e+00 1.0000000000e+00 2.0000000000e+00 4.9615355922e-01 -2.0640621621e-01 8.4334341735e-01 0.0000000000e+00
1838 1.0000000000e+00 1.0000000000e+00 2.0000000000e+00 9.8284665582e-01 -1.2010426642e-01 1.3995505113e-01 0.0000000000e+00
1839 1.0000000000e+00 1.0000000000e+00 2.0000000000e+00 6.1316059104e-01 5.3836643581e-01 5.7809659260e-01 -0.0000000000e+00
1840 1.0000000000e+00 1.0000000000e+00 2.0000000000e+00 7.3421273769e-01 9.4080475448e-02 -6.7236933300e-01 0.0000000000e+00
1841 1.0000000000e+00 1.0000000000e+00 2.0000000000e+00 5.4859124119e-01 6.9565661006e-01 -4.6379902002e-01 0.0000000000e+00
1842 1.0000000000e+00 1.0000000000e+00 2.0000000000e+00 2.7262231970e-01 -8.5551265746e-01 4.4019900469e-01 0.0000000000e+00
1843 1.0000000000e+00 1.0000000000e+00 2.0000000000e+00 5.4813578246e-01 -3.9055264656e-01 -7.3960516105e-01 0.0000000000e+00
1844 1.0000000000e+00 1.0000000000e+00 2.0000000000e+00 9.9666266773e-01 -2.0119825349e-02 -7.9112068443e-02 0.0000000000e+00
1845 1.0000000000e+00 1.0000000000e+00 2.0000000000e+00 2.8570903126e-01 -8.0424510705e-01 5.2111434181e-01 0.0000000000e+00
1846 1.0000000000e+00 1.0000000000e+00 2.0000000000e+00 6.4862236372e-01 -4.4413699652e-01 6.1808685280e-01 0.0000000000e+00
1847 1.0000000000e+00 1.0000000000e+00 2.0000000000e+00 9.1494693917e-01 5.3809517073e-02 3.9997079191e-01 -0.0000000000e+00
1848 1.0000000000e+00 1.0000000000e+00 2.0000000000e+00 1.1329493965e-01 -8.3566649169e-01 5.3742513089e-01 0.0000000000e+00
1849 1.0000000000e+00 1.0000000000e+00 2.0000000000e+00 5.7131686444e-01 -9.8975012944e-02 8.1473982793e-01 0.0000000000e+00
1850 1.0000000000e+00 1.0000000000e+00 2.0000000000e+00 6.5495888373e-01 1.4899833150e-01 7.4082950659e-01 -0.0000000000e+00
1851 1.0000000000e+00 1.0000000000e+00 2.0000000000e+00 5.0838348019e-01 -8.5694934133e-01 -8.4758854807e-02 0.0000000000e+00
1852 1.0000000000e+00 1.0000000000e+00 2.0000000000e+00 9.2524517771e-01 1.9131061656e-01 -3.2759976970e-01 0.0000000000e+00
1853 1.0000000000e+00 1.0000000000e+00 2.0000000000e+00 7.9777848622e-01 -5.9588276652e-01 9.2050070583e-02 0.0000000000e+00
1854 1.0000000000e+00 1.0000000000e+00 2.0000000000e+00 9.4152788285e-01 1.3612954222e-01 -3.0821095625e-01 0.0000000000e+00
1855 1.0000000000e+00 1.0000000000e+00 2.0000000000e+00 8.2567352877e-01 -2.5557877612e-01 5.0293410411e-01 0.0000000000e+00
1856 1.0000000000e+00 1.0000000000e+00 2.0000000000e+00 3.8129570458e-01 8.7489110132e-01 -2.9862877707e-01 0.0000000000e+00
1857 1.0000000000e+00 1.0000000000e+00 2.0000000000e+00 9.2315244013e-01 8.4427371157e-02 -3.7504878520e-01 0.0000000000e+00
1858 1.0000000000e+00 1.0000000000e+00 2.0000000000e+00 7.8544547413e-01 1.8323350464e-01 -5.9118600283e-01 0.0000000000e+00
1859 1.0000000000e+00 1.0000000000e+00 2.0000000000e+00 8.9463448028e-01 1.9600726331e-01 -4.0151002407e-01 0.0000000000e+00
1860 1.0000000000e+00 1.0000000000e+00 2.0000000000e+00 9.4746243015e-01 -2.4627215265e-01 2.0411998993e-01 0.0000000000e+00
1861 1.0000000000e+00 1.0000000000e+00 2.0000000000e+00 8.8287811016e-01 -4.5065111475e-01 1.3205989314e-01 0.0000000000e+00
1862 1.0000000000e+00 1.0000000000e+00 2.0000000000e+00 5.3884273060e-01 9.6397736361e-02 -8.3687274308e-01 0.0000000000e+00
1863 1.0000000000e+00 1.0000000000e+00 2.0000000000e+00 9.3712409307e-01 3.0620539977e-01 -1.6744159384e-01 0.0000000000e+00
1864 1.0000000000e+00 1.0000000000e+00 2.0000000000e+00 8.8224650984e-01 -1.8444490672e-01 4.3315259696e-01 0.0000000000e+00
1865 1.0000000000e+00 1.0000000000e+00 2.0000000000e+00 8.0437437806e-01 -2.7279868431e-01 -5.2779042977e-01 0.0000000000e+00
1866 1.0000000000e+00 1.0000000000e+00 2.0000000000e+00 9.5811681322e-01 2.1777502321e-01 1.8597368496e-01 -0.0000000000e+00
1867 1.0000000000e+00 1.0000000000e+00 2.0000000000e+00 4.6190703955e-01 2.2236496740e-01 8.5860101799e-01 -0.0000000000e+00
1868 1.0000000000e+00 1.0000000000e+00 2.0000000000e+00 4.9103448226e-01 -7.8554830460e-01 -3.7656207770e-01 0.0000000000e+00
1869 1.0000000000e+00 1.0000000000e+00 2.0000000000e+00 7.9157252572e-01 -1.7659696765e-01 5.8500123721e-01 0.0000000000e+00
1870 1.0000000000e+00 1.0000000000e+00 2.0000000000e+00 7.4985481489e-01 -1.0027361978e-01 -6.5395944658e-01 0.0000000000e+00
1871 1.0000000000e+00 1.0000000000e+00 2.0000000000e+00 2.6093192426e-01 2.5745836232e-01 -9.3039224125e-01 0.0000000000e+00
1872 1.0000000000e+00 1.0000000000e+00 2.0000000000e+00 2.3137774098e-01 8.4263414996e-01 -4.8624276889e-01 0.0000000000e+00
1873 1.0000000000e+00 1.0000000000e+00 2.0000000000e+00 5.1611409304e-01 1.0396127583e-01 8.5018721238e-01 -0.0000000000e+00
1874 1.0000000000e+00 1.0000000000e+00 2.0000000000e+00 4.7304497282e-01 -6.9688798303e-01 -5.3905064029e-01 0.0000000000e+00
1875 1.0000000000e+00 1.0000000000e+00 2.0000000000e+00 9.3682715202e-01 2.9164636824e-01 -1.9312504532e-01 0.0000000000e+00
1876 1.0000000000e+00 1.0000000000e+00 2.0000000000e+00 5.2785088940e-01 8.4084645528e-01 -1.1979431204e-01 0.0000000000e+00
1877 1.0000000000e+00 1.0000000000e+00 2.0000000000e+00 9.7916111170e-01 1.5954110098e-01 1.2565888126e-01 -0.0000000000e+00
1878 1.0000000000e+00 1.0000000000e+00 2.0000000000e+00 9.7916634257e-01 3.7401054332e-02 1.9958565759e-01 -0.0000000000e+00
1879 1.0000000000e+00 1.0000000000e+00 2.0000000000e+00 7.7817471221e-01 -5.3227309903e-01 -3.3336086352e-01 0.0000000000e+00
1880 1.0000000000e+00 1.0000000000e+00 2.0000000000e+00 2.9063509494e-01 9.4609137494e-01 1.4297675281e-01 -0.0000000000e+00
1881 1.0000000000e+00 1.0000000000e+00 2.0000000000e+00 9.5530321432e-01 -2.9484415934e-01 -2.1510239570e-02 0.0000000000e+00
1882 1.0000000000e+00 1.0000000000e+00 2.0000000000e+00 6.2026134694e-01 5.9686149453e-01 -5.0895207814e-01 0.0000000000e+00
1883 1.0000000000e+00 1.0000000000e+00 2.0000000000e+00 8.4607546595e-01 7.5952153928e-02 5.2762446516e-01 -0.0000000000e+00
1884 1.0000000000e+00 1.0000000000e+00 2.0000000000e+00 6.7662037391e-01 2.7954221861e-01 6.8120556194e-01 -0.0000000000e+00
1885 1.0000000000e+00 1.0000000000e+00 2.0000000000e+00 7.9218136725e-01 -6.1001327687e-01 1.8234127946e-02 0.0000000000e+00
1886 1.0000000000e+00 1.0000000000e+00 2.0000000000e+00 6.6515331329e-01 -4.4853762794e-01 -5.9697995455e-01 0.0000000000e+00
1887 1.0000000000e+00 1.0000000000e+00 2.0000000000e+00 1.7336191921e-01 3.6592070718e-02 -9.8417816747e-01 0.0000000000e+00
1888 1.0000000000e+00 1.0000000000e+00 2.0000000000e+00 5.5018323901e-01 -3.4995551168e-01 -7.5817514030e-01 0.0000000000e+00
1889 1.0000000000e+00 1.0000000000e+00 2.0000000000e+00 9.6853174937e-01 -1.1055826056e-01 2.2298681910e-01 0.0000000000e+00
1890 1.0000000000e+00 1.0000000000e+00 2.0000000000e+00 6.0498303211e-01 -4.4462251032e-01 6.6053490004e-01 0.0000000000e+00
1891 1.0000000000e+00 1.0000000000e+00 2.0000000000e+00 6.7471085283e-01 -3.8798124486e-01 -6.2788201019e-01 0.0000000000e+00
1892 1.0000000000e+00 1.0000000000e+00 2.0000000000e+00 9.3313005725e-01 1.9915997263e-01 2.9933860686e-01 -0.0000000000e+00
1893 1.0000000000e+00 1.0000000000e+00 2.0000000000e+00 7.1018858996e-01 -5.4211980206e-01 -4.4915285471e-01 0.0000000000e+00
1894 1.0000000000e+00 1.0000000000e+00 2.0000000000e+00 6.8510283262e-01 4.5470874913e-02 7.2702579615e-01 -0.0000000000e+00
1895 1.0000000000e+00 1.0000000000e+00 2.0000000000e+00 7.1595143227e-01 3.4626682866e-01 6.0622836456e-01 -0.0000000000e+00
1896 1.0000000000e+00 1.0000000000e+00 2.0000000000e+00 9.5088894362e-01 2.3871960187e-01 -1.9703595759e-01 0.0000000000e+00
1897 1.0000000000e+00 1.0000000000e+00 2.0000000000e+00 9.4235180511e-01 -2.9475242061e-01 1.5841112949e-01 0.0000000000e+00
1898 1.0000000000e+00 1.0000000000e+00 2.0000000000e+00 9.5856167438e-01 2.3968629994e-01 -1.5398049885e-01 0.0000000000e+00
1899 1.0000000000e+00 1.0000000000e+00 2.0000000000e+00 9.7519632188e-01 -8.2099845968e-02 -2.0555230257e-01 0.0000000000e+00
1900 1.0000000000e+00 1.0000000000e+00 2.0000000000e+00 5.2075491923e-01 -7.0329537143e-01 4.8393174584e-01 0.0000000000e+00
1901 1.0000000000e+00 1.0000000000e+00 2.0000000000e+00 4.6781281736e-01 -8.3386807304e-01 2.9294232313e-01 0.0000000000e+00
1902 1.0000000000e+00 1.0000000000e+00 2.0000000000e+00 4.9594759135e-01 -2.5107580263e-01 -8.3126224981e-01 0.0000000000e+00
1903 1.0000000000e+00 1.0000000000e+00 2.0000000000e+00 7.3744558522e-01 1.9045421552e-01 -6.4799783998e-01 0.0000000000e+00
1904 1.0000000000e+00 1.0000000000e+00 2.0000000000e+00 3.2466868709e-02 -9.8932022367e-01 1.4209643723e-01 0.0000000000e+00
1905 1.0000000000e+00 1.0000000000e+00 2.0000000000e+00 8.0968756913e-01 -1.0512878603e-01 5.7736814836e-01 0.0000000000e+00
1906 1.0000000000e+00 1.0000000000e+00 2.0000000000e+00 9.6851666622e-01 1.9923509900e-01 1.4926768768e-01 -0.0000000000e+00
1907 1.0000000000e+00 1.0000000000e+00 2.0000000000e+00 5.6428062399e-01 8.0812489221e-01 1.6888320219e-01 -0.0000000000e+00
1908 1.0000000000e+00 1.0000000000e+00 2.0000000000e+00 6.3833687633e-01 -5.3687072809e-01 -5.5163017832e-01 0.0000000000e+00
1909 1.0000000000e+00 1.0000000000e+00 2.0000000000e+00 9.5640091742e-01 -2.8988026991e-01 3.5590929632e-02 0.0000000000e+00
1910 1.0000000000e+00 1.0000000000e+00 2.0000000000e+00 9.6347894720e-01 -2.6167194739e-01 -5.6886819634e-02 0.0000000000e+00
1911 1.0000000000e+00 1.0000000000e+00 2.0000000000e+00 4.6514457543e-01 8.5854782602e-01 2.1572240120e-01 -0.0000000000e+00
1912 1.0000000000e+00 1.0000000000e+00 2.0000000000e+00 9.9188317009e-01 -7.3834171040e-02 1.0351952515e-01 0.0000000000e+00
1913 1.0000000000e+00 1.0000000000e+00 2.0000000000e+00 2.0616477729e-01 4.5771008630e-02 -9.7744621303e-01 0.0000000000e+00
1914 1.0000000000e+00 1.0000000000e+00 2.0000000000e+00 9.5932510569e-01 2.3503813622e-01 -1.5637268339e-01 0.0000000000e+00
1915 1.0000000000e+00 1.0000000000e+00 2.0000000000e+00 9.4243443690e-01 3.1755258750e-02 -3.3287976160e-01 0.0000000000e+00
1916 1.0000000000e+00 1.0000000000e+00 2.0000000000e+00 4.1845652249e-01 8.9509617368e-01 1.5393823000e-01 -0.0000000000e+00
1917 1.0000000000e+00 1.0000000000e+00 2.0000000000e+00 6.5826677235e-01 -1.3903462745e-01 7.3983391974e-01 0.0000000000e+00
1918 1.0000000000e+00 1.0000000000e+00 2.0000000000e+00 9.0309075181e-01 7.9475731835e-02 4.2203163631e-01 -0.0000000000e+00
1919 1.0000000000e+00 1.0000000000e+00 2.0000000000e+00 4.0688742662e-01 7.8678563153e-01 4.6412389734e-01 -0.0000000000e+00
1920 1.0000000000e+00 1.0000000000e+00 2.0000000000e+00 1.8863276080e-01 -8.4205591540e-01 -5.0533109630e-01 0.0000000000e+00
1921 1.0000000000e+00 1.0000000000e+00 2.0000000000e+00 9.8140733837e-01 -8.4952694229e-02 1.7211239335e-01 0.0000000000e+00
1922 1.0000000000e+00 1.0000000000e+00 2.0000000000e+00 4.3589134221e-01 -4.4192695689e-01 -7.8402761594e-01 0.0000000000e+00
1923 1.0000000000e+00 1.0000000000e+00 2.0000000000e+00 8.5077326033e-01 -4.4331432655e-01 2.8223619076e-01 0.0000000000e+00
1924 1.0000000000e+00 1.0000000000e+00 2.0000000000e+00 9.5380071214e-01 -7.0910367225e-02 2.9195191613e-01 0.0000000000e+00
1925 1.0000000000e+00 1.0000000000e+00 2.0000000000e+00 4.2887236065e-01 5.6012515136e-01 7.0875123498e-01 -0.0000000000e+00
1926 1.0000000000e+00 1.0000000000e+00 2.0000000000e+00 4.0720144910e-01 7.5322200690e-01 5.1656905460e-01 -0.0000000000e+00
1927 1.0000000000e+00 1.0000000000e+00 2.0000000000e+00 7.6303548663e-01 5.4210622630e-01 3.5199103050e-01 -0.0000000000e+00
1928 1.0000000000e+00 1.0000000000e+00 2.0000000000e+00 8.0460674579e-01 5.9379631157e-01 -3.7316213021e-03 0.0000000000e+00
1929 1.0000000000e+00 1.0000000000e+00 2.0000000000e+00 8.1002523496e-01 -5.8030963779e-01 8.4260566126e-02 0.0000000000e+00
1930 1.0000000000e+00 1.0000000000e+00 2.0000000000e+00 7.8483884801e-01 4.3215560454e-01 -4.4415033055e-01 0.0000000000e+00
1931 1.0000000000e+00 1.0000000000e+00 2.0000000000e+00 6.4695376465e-01 2.4348111672e-01 7.2261177142e-01 -0.0000000000e+00
1932 1.0000000000e+00 1.0000000000e+00 2.0000000000e+00 8.3525883351e-01 2.9146989736e-01 -4.6624883912e-01 0.0000000000e+00
1933 1.0000000000e+00 1.0000000000e+00 2.0000000000e+00 5.2694525201e-01 8.3281001344e-01 1.6957648095e-01 -0.0000000000e+00
1934 1.0000000000e+00 1.0000000000e+00 2.0000000000e+00 3.0768827806e-01 8.8499150837e-01 -3.4945379331e-01 0.0000000000e+00
1935 1.0000000000e+00 1.0000000000e+00 2.0000000000e+00 7.0633417923e-01 -5.5142030594e-01 4.4387799388e-01 0.0000000000e+00
1936 1.0000000000e+00 1.0000000000e+00 2.0000000000e+00 5.4052438608e-01 8.2574171116e-01 -1.6119557840e-01 0.0000000000e+00
1937 1.0000000000e+00 1.0000000000e+00 2.0000000000e+00 9.7663313655e-01 2.0081738755e-01 -7.6551247225e-02 0.0000000000e+00
1938 1.0000000000e+00 1.0000000000e+00 2.0000000000e+00 8.3593855513e-01 5.4573779088e-01 -5.8111923590e-02 0.0000000000e+00
1939 1.0000000000e+00 1.0000000000e+00 2.0000000000e+00 9.6425059695e-01 -2.5991500058e-01 5.1623432225e-02 0.0000000000e+00
1940 1.0000000000e+00 1.0000000000e+00 2.0000000000e+00 7.8090691929e-01 -5.5682699721e-01 -2.8306903501e-01 0.0000000000e+00
1941 1.0000000000e+00 1.0000000000e+00 2.0000000000e+00 7.3330502264e-01 6.7971790355e-01 1.5726263608e-02 -0.0000000000e+00
1942 1.0000000000e+00 1.0000000000e+00 2.0000000000e+00 6.6593707608e-01 -5.0417344645e-01 5.4985174964e-01 0.0000000000e+00
1943 1.0000000000e+00 1.0000000000e+00 2.0000000000e+00 4.6391160900e-01 3.4044168352e-01 -8.1785419187e-01 0.0000000000e+00
1944 1.0000000000e+00 1.0000000000e+00 2.0000000000e+00 9.2253167404e-01 1.1318121502e-02 3.8575537654e-01 -0.0000000000e+00
1945 1.0000000000e+00 1.0000000000e+00 2.0000000000e+00 7.2363952740e-01 2.9582997027e-01 6.2356271783e-01 -0.0000000000e+00
1946 1.0000000000e+00 1.0000000000e+00 2.0000000000e+00 8.2069074285e-01 -3.9289639573e-01 4.1484831785e-01 0.0000000000e+00
1947 1.0000000000e+00 1.0000000000e+00 2.0000000000e+00 8.0352865318e-01 5.1976929999e-01 -2.9014061815e-01 0.0000000000e+00
1948 1.0000000000e+00 1.0000000000e+00 2.0000000000e+00 9.9582122066e-01 -9.1310509799e-02 -1.5771150206e-03 0.0000000000e+00
1949 1.0000000000e+00 1.0000000000e+00 2.0000000000e+00 9.3296857977e-01 1.5647758937e-01 3.2416723027e-01 -0.0000000000e+00
1950 1.0000000000e+00 1.0000000000e+00 2.0000000000e+00 8.2480231275e-01 -5.7361374719e-02 -5.6250406005e-01 0.0000000000e+00
1951 1.0000000000e+00 1.0000000000e+00 2.0000000000e+00 9.0374227904e-01 -3.9412699142e-01 -1.6707425806e-01 0.0000000000e+00
1952 1.0000000000e+00 1.0000000000e+00 2.0000000000e+00 8.3144378344e-01 4.6441353515e-01 -3.0499393987e-01 0.0000000000e+00
1953 1.0000000000e+00 1.0000000000e+00 2.0000000000e+00 3.2320196212e-01 9.4627261109e-01 -1.0422916332e-02 0.0000000000e+00
1954 1.0000000000e+00 1.0000000000e+00 2.0000000000e+00 8.0375585482e-01 2.3561056101e-01 -5.4631876170e-01 0.0000000000e+00
1955 1.0000000000e+00 1.0000000000e+00 2.0000000000e+00 8.3917165362e-01 -1.5983502632e-01 -5.1984968992e-01 0.0000000000e+00
1956 1.0000000000e+00 1.0000000000e+00 2.0000000000e+00 6.2716972883e-01 -1.5258489718e-01 7.6379053437e-01 0.0000000000e+00
1957 1.0000000000e+00 1.0000000000e+00 2.0000000000e+00 2.0466739655e-01 -2.0921403775e-01 9.5621166234e-01 0.0000000000e+00
1958 1.0000000000e+00 1.0000000000e+00 2.0000000000e+00 7.9002109572e-01 6.0899410423e-01 -7.0660097191e-02 0.0000000000e+00
1959 1.0000000000e+00 1.0000000000e+00 2.0000000000e+00 4.9339071754e-01 -7.8264491179e-01 3.7951619450e-01 0.0000000000e+00
1960 1.0000000000e+00 1.0000000000e+00 2.0000000000e+00 2.7068467390e-01 7.5066092911e-03 9.6263879941e-01 -0.0000000000e+00
1961 1.0000000000e+00 1.0000000000e+00 2.0000000000e+00 8.0292436582e-01 -4.4741548207e-01 -3.9386780673e-01 0.0000000000e+00
1962 1.0000000000e+00 1.0000000000e+00 2.0000000000e+00 8.6130590391e-01 4.8192266133e-01 1.6094312157e-01 -0.0000000000e+00
1963 1.0000000000e+00 1.0000000000e+00 2.0000000000e+00 9.8200805036e-01 -1.8660157403e-01 2.8983471070e-02 0.0000000000e+00
1964 1.0000000000e+00 1.0000000000e+00 2.0000000000e+00 9.3212352003e-01 2.7123085742e-01 2.3995742411e-01 -0.0000000000e+00
1965 1.0000000000e+00 1.0000000000e+00 2.0000000000e+00 6.7536467127e-01 5.7387093339e-01 -4.6320051016e-01 0.0000000000e+00
1966 1.0000000000e+00 1.0000000000e+00 2.0000000000e+00 8.3363345062e-01 5.4366441600e-01 9.7387231118e-02 -0.0000000000e+00
1967 1.0000000000e+00 1.0000000000e+00 2.0000000000e+00 4.7726620353e-01 3.7383479649e-03 -8.7875081549e-01 0.0000000000e+00
1968 1.0000000000e+00 1.0000000000e+00 2.0000000000e+00 7.0214195682e-01 -6.5508711748e-01 -2.7902964176e-01 0.0000000000e+00
1969 1.0000000000e+00 1.0000000000e+00 2.0000000000e+00 5.9856897098e-01 7.5588355250e-01 -2.6524562586e-01 0.0000000000e+00
1970 1.0000000000e+00 1.0000000000e+00 2.0000000000e+00 2.6751400699e-01 -5.5677810307e-01 -7.8640600201e-01 0.0000000000e+00
1971 1.0000000000e+00 1.0000000000e+00 2.0000000000e+00 9.8329232792e-01 -9.2533394820e-02 1.5676022675e-01 0.0000000000e+00
1972 1.0000000000e+00 1.0000000000e+00 2.0000000000e+00 8.9135355055e-01 4.5133213711e-01 4.2286521799e-02 -0.0000000000e+00
1973 1.0000000000e+00 1.0000000000e+00 2.0000000000e+00 8.1530446195e-01 4.5904149278e-01 3.5292993955e-01 -0.0000000000e+00
1974 1.0000000000e+00 1.0000000000e+00 2.0000000000e+00 7.4382603130e-01 5.5108568898e-01 3.7818963308e-01 -0.0000000000e+00
1975 1.0000000000e+00 1.0000000000e+00 2.0000000000e+00 7.9257946278e-01 5.8620756837e-01 -1.6786447499e-01 0.0000000000e+00
1976 1.0000000000e+00 1.0000000000e+00 2.0000000000e+00 9.9453019316e-01 -6.5723419976e-02 -8.1179596921e-02 0.0000000000e+00
1977 1.0000000000e+00 1.0000000000e+00 2.0000000000e+00 9.1145372183e-01 8.6248582661e-02 -4.0226023288e-01 0.0000000000e+00
1978 1.0000000000e+00 1.0000000000e+00 2.0000000000e+00 6.6116295059e-01 7.0191104357e-02 -7.4695164612e-01 0.0000000000e+00
1979 1.0000000000e+00 1.0000000000e+00 2.0000000000e+00 6.8001196379e-01 7.4334699711e-02 -7.2942311557e-01 0.0000000000e+00
1980 1.0000000000e+00 1.0000000000e+00 2.0000000000e+00 5.2583237500e-01 -5.2371400727e-01 -6.7024171162e-01 0.0000000000e+00
1981 1.0000000000e+00 1.0000000000e+00 2.0000000000e+00 2.8388728333e-01 -8.7285111525e-01 -3.9691175464e-01 0.0000000000e+00
1982 1.0000000000e+00 1.0000000000e+00 2.0000000000e+00 9.0638104889e-01 -3.5617338769e-01 2.2718695411e-01 0.0000000000e+00
1983 1.0000000000e+00 1.0000000000e+00 2.0000000000e+00 4.1530847320e-01 -6.7856785705e-01 6.0585851109e-01 0.0000000000e+00
1984 1.0000000000e+00 1.0000000000e+00 2.0000000000e+00 4.1401427842e-01 1.1424818407e-01 -9.0307227269e-01 0.0000000000e+00
1985 1.0000000000e+00 1.0000000000e+00 2.0000000000e+00 1.6275032403e-01 -3.6211941291e-01 9.1781363186e-01 0.0000000000e+00
1986 1.0000000000e+00 1.0000000000e+00 2.0000000000e+00 5.3041312711e-01 8.3266556914e-01 1.5915390210e-01 -0.0000000000e+00
1987 1.0000000000e+00 1.0000000000e+00 2.0000000000e+00 6.4808982528e-01 5.9719741308e-01 4.7258314419e-01 -0.0000000000e+00
1988 1.0000000000e+00 1.0000000000e+00 2.0000000000e+00 9.0351787635e-01 3.2339882443e-01 2.8119147831e-01 -0.0000000000e+00
1989 1.0000000000e+00 1.0000000000e+00 2.0000000000e+00 6.8489321786e-01 -7.2499092412e-01 -7.2865904774e-02 0.0000000000e+00
1990 1.0000000000e+00 1.0000000000e+00 2.0000000000e+00 6.8579934175e-01 -1.4948299949e-01 7.1227389094e-01 0.0000000000e+00
1991 1.0000000000e+00 1.0000000000e+00 2.0000000000e+00 2.1282704929e-01 3.0047787553e-01 -9.2974065922e-01 0.0000000000e+00
1992 1.0000000000e+00 1.0000000000e+00 2.0000000000e+00 6.5275477908e-01 3.1390323821e-01 6.8947513039e-01 -0.0000000000e+00
1993 1.0000000000e+00 1.0000000000e+00 2.0000000000e+00 7.7593145863e-01 -2.0164494415e-01 -5.9772040957e-01 0.0000000000e+00
1994 1.0000000000e+00 1.0000000000e+00 2.0000000000e+00 6.3780220130e-01 5.0241368063e-01 5.8377122705e-01 -0.0000000000e+00
1995 1.0000000000e+00 1.0000000000e+00 2.0000000000e+00 2.5919861707e-01 -9.4030435185e-01 2.2055340123e-01 0.0000000000e+00
1996 1.0000000000e+00 1.0000000000e+00 2.0000000000e+00 4.6241923401e-01 1.4607403039e-01 -8.7454607064e-01 0.0000000000e+00
1997 1.0000000000e+00 1.0000000000e+00 2.0000000000e+00 4.7937477382e-01 -6.3915290781e-01 6.0140118611e-01 0.0000000000e+00
1998 1.0000000000e+00 1.0000000000e+00 2.0000000000e+00 3.8430624693e-01 4.1295308947e-01 -8.2569876739e-01 0.0000000000e+00
1999 1.0000000000e+00 1.0000000000e+00 2.0000000000e+00 5.3155663315e-01 2.2880295815e-01 -8.1553464187e-01 0.0000000000e+00
2000 1.0000000000e+00 1.0000000000e+00 2.0000000000e+00 9.9034427727e-01 9.6235463595e-02 9.9784507902e-02 -0.0000000000e+00
2001 1.0000000000e+00 1.0000000000e+00 2.0000000000e+00 6.6991298661e-01 -3.2482914069e-01 -6.6760963125e-01 0.0000000000e+00
2002 1.0000000000e+00 1.0000000000e+00 2.0000000000e+00 4.3671588223e-01 -8.4785985850e-01 3.0068737677e-01 0.0000000000e+00
2003 1.0000000000e+00 1.0000000000e+00 2.0000000000e+00 5.1003013815e-01 6.3490952468e-01 -5.8030953262e-01 0.0000000000e+00

Velocities

1 -9.8727059490e-01 4.5314140690e-01 -7.3740338372e-01 -1.8839771432e-02 -1.5006515991e-02 2.5741422989e-02
2 1.4791341175e+00 -7.5426574561e-01 1.4270629237e+00 1.4427947395e-01 1.7069314365e-01 5.8979719295e-02
3 1.4921937633e+00 -8.1869174566e-02 6.9562420709e-01 1.0520122486e-01 -2.7450327296e-02 -6.5549805812e-02
4 -7.1121216808e-01 5.3731697880e-01 1.4118595112e+00 2.5865516419e-01 -1.3842586076e-01 -4.4417950511e-02
5 7.0735498432e-01 -8.9273176799e-01 -8.1624273521e-01 1.9841465142e-02 1.8397509672e-01 -1.0316079223e-01
6 -1.0750254856e+00 1.9255041397e-01 -1.4886535865e-01 -2.1089293557e-01 2.6086577812e-01 -2.6254966144e-01
7 -1.1402192892e-01 -1.1308331768e-01 -1.0175082227e+00 1.2328450681e-04 -1.2249459317e-02 -2.4434890516e-02
8 -1.6464371045e+00 -1.7099380450e+00 5.5648781956e-01 5.3277573585e-01 1.5143305858e-01 1.4736486289e-01
9 1.3172847678e+00 2.4813414652e-01 -5.6218792333e-01 -4.1932760010e-01 2.1213696869e-01 1.1402349210e-02
10 1.9312265988e+00 -2.0636862652e-01 1.2650376874e+00 -1.9804982855e-01 1.6670644244e-01 4.1298601263e-01
11 -8.5899636760e-01 6.9717444628e-01 -1.5716156488e+00 -1.8546358068e-01 3.3076117036e-02 -2.0379961716e-01
12 8.0687563780e-01 -4.4327410253e-02 -8.4614095089e-01 2.7300410929e-01 1.5444893045e-01 -9.9362241870e-02
13 6.0164264448e-01 1.2892806635e+00 5.3074236300e-01 2.2747449058e-01 -3.9513021523e-01 -2.1023621303e-02
14 -3.9976865194e-01 1.2157949259e+00 -1.5601359540e-01 1.5053012440e-01 1.5166291063e-01 -4.6139424835e-01
15 6.5543852827e-01 -3.2311094186e-01 1.4459168055e+00 1.5326888441e-01 8.5079267787e-02 1.4276423587e-01
16 -6.7342186209e-01 1.3511379706e+00 -1.8673742877e-01 1.4288971667e-01 7.3280421971e-02 -2.4595338851e-01
17 -1.6685671700e+00 -9.9645359137e-01 7.2862490906e-01 -3.3879184352e-01 -2.6466416262e-01 1.1110207144e-01
18 -8.6685745868e-02 -1.2375366861e+00 -6.5504988012e-01 1.1552499076e-01 2.6064748193e-01 -2.4637890500e-01
19 1.1243288400e+00 -1.2045192035e+00 -1.0476070314e+00 5.6747891972e-02 -6.1172883304e-02 -2.0043297412e-01
20 1.9350324599e+00 -6.9842329564e-01 -6.9825410264e-02 2.1869067585e-01 1.3251017214e-01 9.6622252772e-04
21 1.1307593980e+00 -1.6512305554e-01 -4.6601229599e-01 3.6240405505e-01 -2.9761182123e-01 -4.2898240913e-01
22 6.2452187460e-01 -6.0746028334e-01 8.3157395282e-01 -1.0038403661e-01 -2.0217283187e-01 -2.1382764978e-01
23 -7.6022184950e-01 -2.4820529851e-01 1.1652592448e+00 -2.2002994104e-01 2.3808662217e-01 4.8028710786e-02
24 -5.9674376615e-01 9.9994559800e-01 1.2582597800e+00 -6.4860098226e-02 -2.0207397070e-02 1.4955148495e-01
25 -5.0779382151e-01 -4.0801665676e-01 -1.6831242196e-01 1.7526104902e-02 -3.2080383348e-02 2.0353445120e-01
26 -4.2314104252e-01 2.5043352428e-01 -1.2429480403e+00 1.4743416422e-01 5.5177307637e-02 -1.6871530715e-01
27 -1.8086659406e+00 -1.2074049000e+00 4.8428469025e-02 2.4168686444e-02 2.1251646896e-01 2.0302914509e-01
28 2.5516703647e+00 -6.9997354696e-01 -1.3788851421e-01 1.1960367025e-01 -6.8688432171e-03 9.3467334109e-03
29 5.7048636086e-01 -6.5988465189e-01 9.6007764528e-01 -1.5989932076e-01 -2.7190827841e-02 4.3700407288e-01
30 4.4379449479e-01 -9.9074457843e-02 -3.0723066819e-01 -5.3910321898e-02 3.9409360946e-01 3.9361527259e-03
31 -1.3549606375e+00 -6.3201616855e-01 -8.6793068568e-01 3.8893668579e-02 1.0455567464e-01 5.9476847697e-02
32 6.2405467472e-01 -8.7686630365e-01 6.5510333758e-01 4.5435619722e-01 3.7052139541e-01 -3.1469589429e-01
33 9.7599926312e-01 7.7586620935e-01 1.2520347304e+00 -3.7615848923e-02 3.4036892196e-01 -6.9868994763e-02
34 -6.4019130614e-01 -3.9313293155e-01 3.6277229890e-02 -4.4610683289e-02 -6.4771113406e-02 -6.5881187506e-02
35 2.0867625072e-01 -1.1319160185e+00 -8.9660059256e-01 -1.0933394757e-01 1.7882769862e-01 3.0421458704e-01
36 -1.2311461886e+00 -2.1688626839e-01 5.6296499236e-01 -2.7095041630e-01 -3.4637079081e-01 -2.9400721568e-01
37 -4.9202794799e-01 -5.0176392829e-01 -1.7385844865e-01 1.6301734430e-02 -2.0183501172e-03 1.5010604576e-02
38 1.3807038772e+00 2.5155292681e-01 -9.9325002372e-01 3.1174893403e-01 -7.6532097087e-02 3.7966462837e-02
39 -1.1346490483e-01 1.4048670723e+00 3.0460400826e-01 -3.1310038069e-02 -5.4952030925e-01 -2.1710225106e-01
40 5.8338662890e-01 9.7943458670e-01 8.8527239275e-01 -1.3490677212e-01 9.4168703082e-02 1.9216076841e-01
41 1.3946996282e+00 -2.5130876599e+00 1.7034620921e-01 2.8119750999e-02 -2.2227503082e-03 -5.2638023100e-02
42 1.3569539828e-01 -5.5954424982e-01 4.6047793621e-01 -3.9924727709e-02 -1.2036282750e-01 -2.3936702156e-02
43 -9.4002979240e-01 1.3925926921e+00 -4.8000706143e-02 -2.3318695590e-02 4.2600858325e-01 -4.4439266932e-02
44 2.7861574528e-01 -6.3621975804e-01 1.2846273344e+00 -2.8425609858e-02 1.5169378149e-01 1.4518050473e-01
45 -1.3650110413e+00 -3.4087998453e-01 -1.2973969750e+00 8.5366101309e-02 1.0314091301e-01 -3.8408926771e-01
46 -2.3900943850e+00 -2.8025195955e+00 -2.7435227902e-02 -1.1467138934e-01 -1.0737464717e-02 6.6638383261e-02
47 -1.0533350381e+00 6.5808413585e-02 7.0972063755e-01 -1.5343391250e-01 -5.8642172703e-02 -1.7379033763e-02
48 3.8600284297e-01 5.8609428097e-01 1.2240465117e+00 3.8369667671e-01 -3.3051592521e-01 1.7613056688e-01
49 -5.2127586420e-01 1.9685406243e-01 8.2962736408e-01 2.5216136999e-02 3.7973754975e-02 5.2152889667e-01
50 3.2697175762e-01 8.9172250710e-01 -7.4969807190e-01 -4.7638004199e-02 -3.3856919471e-01 1.9124326790e-01
51 -5.5680186496e-01 -1.7432797506e+00 7.3535229722e-01 -4.8364133990e-01 5.2152774856e-02 2.0700756339e-01
52 5.2170380489e-01 -1.6254739896e+00 3.7948512077e-01 2.0796392022e-01 7.6656263071e-02 5.5819164197e-02
53 5.7606196332e-01 1.8893564107e+00 -1.1607266914e+00 6.1333536916e-02 -1.7106037050e-01 -2.4783593853e-01
54 -1.5246387147e+00 -1.0831236719e+00 -2.9465601203e-01 -1.3391764804e-01 -2.2553418246e-01 1.0068359825e-02
55 8.8766406402e-02 -8.2867496085e-01 6.7020373437e-01 2.0595578524e-01 -6.6681377887e-02 2.0277759493e-01
56 9.8650556598e-01 -5.4592979416e-01 -3.9413626036e-02 -4.0366289236e-02 -2.6466888773e-02 -1.4109995884e-01
57 -5.4994032392e-02 4.6150884602e-01 7.9759578648e-01 1.9946107994e-01 6.0225117880e-01 -2.1916037437e-02
58 1.8943461848e-01 1.1900974560e+00 -1.6720885764e+00 -1.0586205587e-01 9.3888371605e-02 1.1320659694e-01
59 5.9532315446e-02 -1.1175362506e+00 1.0693704917e+00 1.0132351765e-01 -1.3399701476e-01 -2.6825011782e-01
60 2.3138309356e+00 1.7977465352e+00 5.9546710754e-01 3.7591018295e-01 -7.7804701965e-03 1.4152322604e-01
61 -9.6541982431e-01 -5.6624838559e-01 -1.3517196987e-01 7.9358919188e-03 -2.4843181184e-01 2.2121220353e-01
62 5.8391540103e-01 6.2262424117e-02 3.1582842638e-02 -4.4180420430e-01 -2.1692747018e-01 -3.3900453613e-02
63 9.3195448475e-02 3.5445173612e-02 3.2208064530e-01 4.6598127616e-01 -1.0356120680e-01 1.0706754826e-01
64 -1.6950678876e-02 -1.0841610523e+00 1.1155509069e-01 3.0176302152e-01 -7.5609045729e-02 -1.7034232252e-01
65 7.0703558582e-01 2.2952006910e+00 1.3802005656e-01 2.3521470622e-02 -6.7016127127e-02 3.2231801762e-01
66 8.6197925698e-01 -1.3016110067e+00 2.0801609123e-01 5.1945759775e-02 2.3309977391e-01 -9.2211035690e-02
67 8.2393980907e-01 5.0991934776e-01 7.2822649257e-03 2.5462150061e-01 1.7252722549e-01 -1.2621629410e-01
68 5.9809379865e-01 -3.6582445906e-01 -8.4171585156e-01 -4.3453220495e-01 -1.6930910107e-01 -3.2116346294e-01
69 9.1364473189e-01 4.3794990346e-01 6.0116970514e-01 -3.9370935473e-02 -1.0189088209e-01 -3.4376557480e-03
70 -1.5743202080e+00 -4.0008088152e-01 1.7316799301e+00 -4.9569703108e-01 -2.9193984188e-01 -4.1490260063e-01
71 -4.2036813392e-01 5.5551637253e-01 3.7047384026e-01 -3.2086982824e-01 2.8840422630e-02 -2.7373713750e-01
72 1.6779294624e+00 1.5143065101e-01 -2.4095645607e-01 9.4529225772e-02 1.0058014913e-01 -2.2028339470e-01
73 2.5255769535e-01 -4.5374285803e-02 -1.1441731489e+00 -1.2625645487e-02 -4.9890146461e-02 -1.0370627673e-02
74 -2.2392179288e-01 -7.3083621289e-01 -1.0555085565e+00 9.3952053909e-02 3.4785822255e-01 -3.8194311235e-01
75 3.9659884134e-01 -1.8070622615e+00 8.2760583171e-01 -3.5686478864e-01 -6.7344067084e-02 -4.1829510951e-02
76 -8.3692378448e-01 -2.5026215453e-01 -3.7773547578e-01 2.1074836303e-01 4.9061838363e-02 -1.8731239264e-01
77 2.5550186861e+00 1.1616180067e+00 1.3874526167e+00 3.1794989426e-02 1.7457417790e-01 -2.0094557732e-01
78 3.1363566770e-01 -3.9919280752e-01 1.0599891497e-01 -6.4232321055e-02 -3.9733615119e-02 -9.7344896495e-02
79 -4.5872577307e-01 -1.6483003901e+00 -6.7263829875e-04 9.0211576217e-02 -9.2750140754e-02 -2.1659055390e-01
80 -1.6351667272e+00 1.6910679583e+00 -2.8724568004e-01 7.9028456959e-02 -2.7650443358e-01 -1.8078302686e-01
81 1.3883039186e+00 -5.8527520158e-01 1.0723012661e+00 1.1025404796e-01 3.2075839161e-02 -1.6713693642e-01
82 -4.0596777898e-01 -1.1708954957e+00 1.3174731917e+00 2.6642825794e-01 1.2890990554e-01 2.9968501325e-01
83 -6.9475120061e-01 -2.1165874840e-01 -1.0811782457e+00 -4.8089245502e-01 -1.6503416686e-01 5.7130482524e-03
84 1.3521514276e+00 9.1846095272e-01 -5.6618872403e-01 -3.7094959825e-02 -8.4188093912e-02 -1.4500236855e-01
85 -7.1490790969e-01 -4.3896281876e-01 -7.0303476602e-01 8.2194248984e-02 6.9113234456e-02 4.6609602877e-02
86 1.1245223177e+00 4.8705135825e-01 -8.0341837252e-02 3.0145704856e-01 -3.0350303062e-01 2.3087777679e-01
87 3.2099187167e-01 -9.2291771224e-01 -5.5099447226e-01 7.2216259252e-02 -2.5945617705e-01 2.1137992302e-01
88 1.0819451671e+00 2.5931126039e-01 2.6296875038e+00 4.0584834367e-01 1.1356829572e-01 -4.8161135568e-02
89 -5.9347639297e-01 -8.8364986723e-01 -1.9287857151e+00 -1.2779870642e-01 1.4557320784e-01 -4.4022833487e-02
90 -4.3163019299e-01 -3.4208717134e-01 2.5025977938e+00 2.9039011511e-01 2.7343773121e-01 2.3387201318e-01
91 3.6670410008e-01 2.1046922407e+00 -5.9632433036e-01 7.7904432099e-02 4.9361998830e-02 3.6250447728e-01
92 -1.4806295465e+00 9.9822795147e-01 -5.8599559001e-02 6.9405743879e-03 -1.6611494131e-01 1.9455163635e-01
93 3.0563684164e-01 -4.0205301597e-01 -5.4505360964e-01 4.9014187240e-03 -8.1882572985e-02 -1.8001012230e-02
94 -1.9266569037e-01 5.5284949376e-01 1.6022934988e+00 1.7243814494e-01 1.0613207553e-02 -9.4706823883e-02
95 1.1205610484e-01 -5.9986909357e-01 1.1125135049e+00 -1.7885653849e-01 1.3195456554e-01 2.8200396402e-01
96 7.8150596952e-01 5.8178812200e-01 -5.9033314806e-02 2.4538261792e-01 -1.4405802324e-01 -1.3984094724e-01
97 -1.8964725738e+00 1.9137749026e+00 1.2583920999e+00 -3.6041606358e-01 -1.2864018933e-01 9.3133328643e-02
98 6.0998122250e-01 -3.9105643261e-02 -1.2511800619e+00 3.7652449674e-01 -4.4311537059e-02 -2.6320806084e-01
99 9.1640537487e-01 8.0935514305e-01 9.2491671030e-01 2.0661672393e-01 -2.6381407545e-01 2.0936370484e-01
100 -1.0500173187e+00 2.5481161870e-01 4.5645282047e-01 -2.1109189043e-02 5.6558324352e-02 6.6972870582e-02
101 9.0458517162e-01 9.7570306784e-01 1.6371970062e+00 -1.0278747551e-01 -6.4659477067e-02 2.6621655584e-01
102 -7.0912672418e-03 8.7658130094e-01 8.5192692346e-01 3.1903677625e-02 1.4846661144e-01 -2.7489603359e-01
103 2.1626829347e-01 2.4304243028e-01 -5.6859533418e-01 -1.2319403651e-01 1.0032145800e-01 1.1291010891e-01
104 -9.7691068603e-01 3.7918679327e-01 -2.2155911352e+00 4.0960700668e-02 -1.0077640198e-01 -1.0504664923e-01
105 -8.3478679595e-01 -2.7525057213e-01 3.7524505592e-03 2.0132699116e-02 -4.3207026478e-02 1.0576969300e-01
106 -2.0050140414e+00 3.5181579473e-01 -5.7010371649e-01 2.9440836604e-01 -5.3952393452e-02 -5.1609431809e-01
107 3.1438192147e-01 1.1554769441e+00 -9.2179584804e-01 -1.3420206807e-01 -5.9074947846e-01 -7.2528873270e-01
108 -1.5697203514e+00 8.7191646808e-01 6.8032009887e-01 1.8306944689e-01 1.2801885061e-01 -1.1416812908e-01
109 -2.7140873480e-01 1.4642260262e+00 7.1153396357e-01 1.4733635400e-01 4.4062380857e-02 2.4920485250e-02
110 -1.4394828867e+00 1.2072934865e+00 5.0430291739e-01 3.0461547952e-01 -1.4524997314e-01 -2.5201905742e-01
111 1.0736559321e+00 -1.7329397131e+00 -2.5366186890e+00 2.2642064908e-01 -9.3655298744e-02 4.0043103788e-03
112 2.8510551070e-01 4.3151555569e-01 -1.2445262460e-01 -3.7136782919e-02 1.0043176199e-01 3.2561520409e-01
113 -2.0773319374e+00 -8.9181923771e-01 -2.1497076651e-01 -6.6216931650e-02 -2.0490748382e-01 3.0199942863e-01
114 -1.5374424136e+00 -4.3895791437e-01 -9.3050230076e-01 8.3012034092e-03 -3.4271029864e-01 4.0502303073e-01
115 1.0588758513e+00 2.8822136419e-01 3.4368544187e-01 1.0580602350e-01 -3.0807241675e-02 1.2627553984e-01
116 -3.9323271733e-01 1.7100763876e+00 8.3535155575e-01 5.1728758411e-01 -9.4613447421e-02 -5.5937531767e-01
117 4.0513792049e-01 -1.4061160706e+00 -5.2388313715e-01 -3.3612560712e-01 -5.8916484701e-02 -9.4551647318e-02
118 -5.7454135118e-01 -8.4466663629e-01 1.1429727970e+00 -1.5387132423e-01 1.0416953910e-02 9.6527451681e-02
119 -7.2731445739e-01 6.8697353119e-01 -9.9792156670e-01 1.0639162651e-01 3.4211866426e-02 -3.0309254446e-01
120 -1.3552062017e+00 9.0324772477e-01 1.4623243149e+00 1.8314150509e-01 1.1298243562e-01 -5.2772904250e-02
121 3.2782301286e-02 8.2699063255e-01 1.1268420965e+00 -1.6922219193e-01 2.7331975842e-01 3.6235951733e-01
122 4.4485491608e-01 6.0181606474e-01 9.2349861659e-01 3.7781926213e-02 3.0573876628e-01 2.6463193065e-01
123 -1.3816604665e-01 2.7990048193e+00 -6.4114081009e-01 2.6078486910e-01 4.1668685649e-01 7.0695477775e-02
124 -1.2254557699e+00 -8.7990026870e-02 2.3689987629e+00 -2.8199415483e-02 -6.0973360091e-03 -5.7793182848e-02
125 -1.8047183129e-01 1.2683608332e+00 -9.8476976384e-01 -1.4593520599e-01 9.8481521121e-02 -1.1134326997e-01
126 5.2738662191e-01 -1.2675635348e+00 -1.1690468875e+00 -1.4511356609e-01 9.4856581605e-02 5.5494439426e-02
127 -3.1569509731e-01 -1.6498736373e-01 5.9853305096e-01 -1.7971470308e-01 -1.3968732938e-01 1.8363746693e-01
128 3.5083289371e-01 -1.6013263700e+00 1.4361995226e+00 -2.0587974741e-02 -2.2240703356e-01 2.8358642894e-02
129 -1.7643185676e+00 -3.9092338250e-01 -1.3604901439e+00 1.1828684286e-01 6.5433076567e-01 -9.9730481176e-02
130 -1.7025083053e+00 6.7182463577e-01 -3.0461319267e-01 1.5000652867e-01 4.1939431649e-02 -2.0476326155e-01
131 5.8132974428e-01 4.2226327777e-01 3.7978514563e-02 -1.9378242774e-02 9.2874195231e-03 -6.9590502267e-02
132 -2.4914930883e+00 -8.3574514792e-01 1.8916116967e+00 -1.6709423555e-01 -1.5896268264e-01 -1.6109177395e-01
133 2.0325545735e-01 -7.6280237441e-02 1.9982500028e+00 5.4173416443e-01 -2.4182510143e-02 1.9242565154e-01
134 1.8811805355e+00 -1.5659913031e-01 4.5288354398e-01 -2.2847761144e-01 2.4214361015e-01 -1.3875976551e-02
135 -1.8871492336e+00 3.5161890236e-01 -9.4176868929e-01 3.5467380667e-01 2.2151111893e-02 -2.1166506529e-01
136 -1.7050975721e+00 -1.2959956680e+00 -1.0948321581e+00 -4.6687530596e-01 -2.0553518566e-01 -6.6787694465e-01
137 -2.1786010790e+00 -1.5125938989e-02 -1.2179119487e-01 -4.4152090582e-01 -1.4234773471e-01 1.6717488101e-01
138 -1.3613428336e+00 -4.9965504064e-01 -1.0788925655e-01 5.0840746937e-02 -1.4433630656e-01 -5.7700939983e-02
139 5.2049748783e-01 1.5477490688e+00 3.9925389890e-01 -3.2209846705e-01 -3.4438934515e-01 5.3298076591e-01
140 -9.3943004798e-01 3.5129762227e-02 5.8527101352e-01 -1.3759628028e-02 -4.0453242770e-02 -1.7715064679e-03
141 -1.8797395670e+00 -1.3213115806e+00 8.9976277742e-01 -2.9479344745e-02 -8.6872748151e-03 -2.3830331508e-02
142 -2.6173550895e-01 6.7234039320e-01 1.1627708907e+00 1.0223720707e-01 1.1189897378e-01 6.2478855808e-02
143 -8.0989496161e-01 1.3630698400e-01 -8.1811483444e-01 2.1746474986e-01 -9.3219016654e-02 -3.3150423322e-01
144 -6.6794823177e-01 -1.0015335134e+00 1.1699087551e+00 -3.6399652145e-01 4.2115669490e-02 2.9263942378e-02
145 -1.7075394736e+00 -3.5774265126e-01 6.6723078214e-01 -6.2899009101e-02 -3.1616626727e-02 7.1739651758e-02
146 5.1122104613e-01 -2.5273417663e-01 -3.5538619453e-01 -7.2067483835e-02 -6.0017572717e-02 6.8088942488e-02
147 -3.6744205816e-01 -2.3052296719e-01 4.5724447964e-02 -6.9536449036e-02 4.1895990945e-02 4.4973034241e-02
148 1.4931048197e+00 3.0146038872e-01 -6.6775629681e-01 -3.3077908608e-01 -2.1097820064e-01 -3.4409771678e-02
149 1.2642782052e+00 -6.5141707335e-01 3.3263483137e-01 1.9327426368e-02 -1.7173660564e-01 -3.6715400503e-01
150 -1.4059158988e+00 5.3150636509e-01 2.6219503278e-01 -3.6354180209e-01 1.7104353463e-01 8.0424583053e-02
151 -1.2420571215e+00 -1.1550517841e+00 2.8073690842e-01 3.7700956231e-01 8.2190520498e-02 4.5951373484e-01
152 2.0024608422e-01 9.4793048992e-01 2.3816249652e-01 3.2175113546e-01 -1.9986392274e-01 1.9775180414e-01
153 1.4586272399e-01 -3.0501731160e-01 -6.3405566609e-01 -2.9092907570e-02 1.4639273204e-01 1.9635438745e-02
154 8.2310405955e-01 4.3694337896e-01 3.0485835287e+00 1.2252858289e-01 1.9123381545e-01 -1.1328643043e-01
155 1.7598376924e+00 3.3312974933e-01 6.4133370923e-02 2.9322651668e-01 -5.2953913712e-02 1.4491882114e-01
156 1.8053295245e-01 -7.8936199152e-01 -3.1318695047e+00 -1.4857161257e-01 4.0370553604e-02 -2.0547322045e-01
157 5.8413801490e-01 5.4547181547e-01 -1.1356631827e+00 -8.6714296205e-02 7.6200949852e-02 -6.1348414818e-02
158 9.9844977887e-01 -4.0804894297e-01 1.1928253601e-01 1.3173498574e-01 2.7694653946e-02 1.4444481491e-01
159 -1.9722143990e+00 -9.7524136831e-01 2.6895869151e-01 -6.2390027075e-02 -1.6785610750e-02 1.6258393496e-01
160 1.3533676582e-01 9.1265593710e-01 3.9147232259e-01 1.4943212895e-01 4.8445367178e-02 -5.0808104339e-01
161 4.7072112362e-01 -1.2898556545e+00 -6.6200620158e-01 -2.8014114089e-01 4.2290314996e-01 -4.2865657366e-01
162 -2.4569562048e-01 -5.6344123374e-02 -1.4339350864e+00 3.8347935482e-01 3.7974917373e-01 9.4606630628e-02
163 4.0504899569e-02 8.4486496710e-01 3.7060229867e-02 5.7455322930e-02 1.8450354680e-01 1.2641814496e-01
164 -2.0491231089e-01 1.1382127822e+00 -2.5215665279e-01 -3.1089456600e-01 2.6199552747e-02 -2.1642743540e-01
165 -4.8900714637e-01 -5.9644828804e-01 7.6542020338e-01 -4.0787011511e-02 -8.2009473560e-02 1.0446508580e-01
166 -2.5364366842e-01 -1.0100685157e-01 -1.6157112898e+00 -1.2079046150e-01 -5.8623120373e-02 4.3302798705e-01
167 5.3880717630e-02 -5.9752863570e-01 9.3826902548e-02 -1.0406176179e-01 5.8403512540e-02 9.7496566904e-02
168 -2.1749121950e-03 -1.4055406801e+00 1.2430287880e+00 2.3819019004e-03 1.8735095934e-02 -8.5449142861e-02
169 -4.4343074512e-01 -6.5351412457e-01 -7.6437062990e-01 -4.7545159570e-01 2.8911908138e-01 -1.6627463284e-01
170 3.2325928364e-01 -1.2186810860e+00 -1.7994018320e+00 1.2044582501e-01 2.9920104341e-01 -3.0516532089e-01
171 -7.7290933363e-01 -1.3778054178e+00 4.8772018218e-01 3.7717264788e-01 2.2945221959e-01 5.1762910982e-02
172 -3.0665008285e-01 6.1227105752e-01 1.4700308636e-01 7.7895248718e-02 1.5720797731e-01 3.4119681587e-01
173 -8.6893251174e-01 -1.0216815677e+00 -4.7735647352e-02 -2.9965524982e-01 -3.2588632540e-02 5.5104565079e-03
174 3.9298531199e-02 -3.8955506255e-01 1.4319178640e+00 -8.0537924491e-03 5.8069202654e-02 -5.4701271609e-02
175 -5.3885066968e-03 1.2104977382e+00 3.9533584622e-01 8.7466931291e-03 -1.6409339256e-01 -1.1890022173e-01
176 -3.4535671902e-01 1.2455098169e+00 1.0875341764e+00 -5.0358934563e-02 7.5552926099e-02 1.4171442378e-01
177 3.8266578726e-01 -1.1655626145e+00 -2.4013471928e+00 5.0791133371e-01 -9.2199259554e-02 -4.8965810014e-02
178 -2.0301014943e-01 1.1690324219e+00 -1.4339838683e+00 -1.2860264505e-01 9.6146242789e-02 2.9375896178e-02
179 3.2483321671e-01 1.0054749332e-01 7.0864620601e-01 -4.2816868507e-02 -1.6258447750e-01 2.2897323729e-01
180 -2.8326011834e-01 -1.4767627836e+00 -4.9519191602e-01 -1.0058553012e-02 1.3600147953e-02 -3.8568570656e-02
181 -8.4059247601e-01 -1.7033072986e-01 -3.8347496454e-01 -1.1022973502e-01 1.2626368798e-01 7.1318964522e-02
182 -1.2006396435e+00 -2.7911209958e-01 1.2632935138e+00 -1.5342096924e-01 -4.0150591933e-01 -1.3801506031e-01
183 -1.5570842851e+00 8.5475191613e-01 -2.1486328014e-01 2.3412230815e-01 1.9344567852e-02 -7.8922902503e-02
184 3.7281556660e+00 -3.8747838979e-01 -1.6248832754e+00 -7.8003944302e-02 1.1407149301e-01 5.0027800957e-01
185 7.9690298861e-01 3.3837200818e-01 -9.4706355595e-01 -1.9445854472e-01 1.3100832265e-01 -1.5305450563e-01
186 1.5534744685e+00 4.6860392281e-01 -4.5806628080e-01 3.0956997011e-01 3.1904328778e-01 1.2350852975e-01
187 7.6909253719e-01 2.2486387045e-01 6.8163897039e-01 -3.1607260740e-02 -8.3910570463e-02 1.6937014531e-01
188 -3.7401631527e-01 -5.5697702905e-01 1.1296712553e-01 -1.0685289891e-01 -3.4865754122e-01 -4.8455213560e-01
189 -3.2296938353e-01 -5.9469321653e-01 2.1139995645e-02 1.5410548343e-01 -7.0730583754e-02 -1.1917730219e-02
190 -1.6984969698e+00 -2.1909508697e-01 1.3921955096e-01 -2.5011577975e-01 -2.3267456248e-01 -2.9502651605e-01
191 1.6499199229e+00 2.4281990129e+00 8.6541527126e-01 -2.8867957595e-01 -2.1612478583e-01 -4.5052586520e-01
192 -2.7314965028e-01 5.7906899188e-01 -1.0629932403e+00 -1.4686207446e-02 -5.5162716778e-02 -1.3916751459e-01
193 -9.7043145003e-02 1.0508248085e+00 -1.1188157606e+00 -3.3423330200e-01 -2.5928822575e-01 1.1589210668e-02
194 -1.5524229672e-01 2.2396854863e-01 -2.7509051455e-01 2.9966075321e-02 1.0842222682e-03 -4.4336873759e-02
195 -1.1984093166e+00 -5.7116951027e-01 -7.8128265514e-02 4.9326155174e-01 -3.1154292637e-01 -4.5968954306e-02
196 -7.6102377676e-02 1.4162390708e-01 -1.1757446355e-01 -2.1631976589e-01 -4.6605297963e-01 3.2932758866e-01
197 -2.9994381132e-01 -7.0123746513e-01 6.9726495379e-01 -1.0536640073e-01 -1.7804633257e-01 2.9725791179e-01
198 8.1940842482e-01 -2.4845635203e-01 2.4369870373e-01 -2.1158268082e-01 3.2951259518e-01 -3.6701712158e-01
199 3.2955987150e-01 -8.2924401195e-01 -1.6110517772e+00 2.8681956634e-01 2.7932946999e-02 4.7763380464e-01
200 2.1279942112e+00 -2.1145797677e+00 -2.1014596562e+00 1.5231183131e-01 -1.4815236070e-02 7.1505730624e-03
201 -2.0992432284e+00 -1.0735822234e+00 1.7601129894e+00 -1.9089533459e-01 1.4801876469e-01 -6.2731788615e-02
202 1.1615797698e+00 -1.2675767657e+00 -4.8371138799e-01 3.5382151953e-02 -3.4554564399e-01 -2.2710008548e-01
203 3.6848533070e-01 -2.5148173579e-02 1.0427813036e-01 -2.5505723825e-01 -2.7230464105e-02 -6.0947685941e-01
204 -5.1588587143e-01 -9.8633006543e-01 -2.8598227619e-01 -8.3854157462e-02 -7.4688091651e-02 -2.4296686445e-01
205 -3.8488011585e-01 -5.2774667425e-01 -1.4301781119e+00 1.8118716550e-01 2.7258128429e-01 -3.0002489661e-01
206 -1.2528570051e-03 -2.9774275219e-01 9.5926541111e-01 1.3089879391e-01 2.5239746433e-01 1.1613164060e-01
207 9.3057525763e-01 7.5488735716e-01 1.8620378308e-01 -7.4914365442e-02 7.1081373235e-02 2.2173818310e-01
208 7.0667543113e-01 9.5198168839e-01 -5.3164995575e-01 1.9682793586e-01 2.0254804700e-01 1.9569217275e-01
209 -7.2153316238e-01 2.5219180877e-01 4.9262373360e-01 3.5216349112e-02 -1.2565677652e-02 2.5311444264e-02
210 -2.1789901610e-01 1.3933858682e+00 -1.3823098612e+00 -4.9447286670e-02 3.7801566376e-01 2.4895336497e-01
211 2.1201937513e+00 1.5307003249e+00 1.0349175925e+00 -2.6274265284e-01 -2.6399595863e-01 -2.7167663058e-01
212 9.9006648595e-01 1.3974690390e-01 -8.6164325289e-01 -1.5087113854e-01 1.2646641732e-01 2.8027901185e-01
213 6.4971725021e-01 1.2822424451e+00 -3.5800440304e-01 -2.2903682216e-03 -3.5826601047e-01 -5.5757959318e-02
214 2.6864691453e-01 -8.0230893207e-01 9.7902681051e-02 1.9012388701e-01 1.4119591913e-01 1.5311557930e-02
215 -5.9268747001e-01 8.0953020605e-01 -1.1683850919e+00 -2.9003457565e-01 -2.3442268017e-01 -6.6386042160e-02
216 1.7304631773e+00 5.3604331453e-01 5.6726250276e-01 -2.8214681610e-01 3.6748413582e-02 5.7193593626e-02
217 1.0253408481e+00 -4.7427797235e-01 -2.5705342993e-01 -6.0139274684e-02 -7.1242916729e-03 -5.5338945152e-02
218 -4.6902470957e-01 -1.5488495192e-01 -1.3787939265e-01 1.6851648926e-01 4.3938473958e-01 -1.2076467390e-01
219 6.2420150644e-01 1.0670389136e-01 -2.3776664791e+00 1.2704860805e-01 4.7090565073e-02 5.2256972552e-02
220 1.5474051171e+00 -9.4446440447e-01 -1.7884096620e-01 -2.5110378020e-01 -1.6740534670e-02 -3.3977377486e-01
221 4.1024287480e-01 -1.6931092613e+00 -4.0543227623e-01 -2.5065199040e-01 5.3514576311e-03 -1.6461492140e-01
222 -7.8961938110e-01 3.1545068340e-01 -4.0779515645e-02 3.6214876244e-01 1.9926712349e-01 -3.2631699494e-01
223 -2.9756209611e+00 4.4791827687e-01 1.3713337549e+00 9.3420555779e-02 -2.0683253426e-01 9.0889568963e-03
224 4.2131157867e-01 -8.7813768249e-01 2.8885946367e-01 -1.7195766209e-01 -2.5681264566e-02 -4.5107207693e-01
225 4.8113096872e-01 -1.8474941653e-01 8.6618243714e-01 2.1361926012e-01 1.3804900011e-01 -3.5498435930e-02
226 -2.1277254701e-01 9.0127818253e-01 5.6968231047e-01 -3.4665071252e-02 1.3870163096e-01 -2.5118967308e-01
227 8.7406901216e-01 -2.7638564297e-01 1.9538004555e-01 -1.1287836057e-02 -3.6770993301e-01 -1.5846487320e-01
228 1.6330440660e+00 1.1375703191e+00 1.0510968659e-02 6.8653621579e-02 -2.5719066917e-01 4.1102461976e-01
229 3.4093753116e-01 3.3285092563e-01 -4.3582940428e-02 -2.1698637905e-01 1.0191508018e-01 -9.6155695068e-03
230 -8.6636123520e-01 2.2158373990e-01 1.0869858344e-02 1.5153438945e-01 3.7268900797e-01 -2.2971271265e-01
231 1.1479741037e-01 5.8753341114e-01 2.9653573567e-02 -2.9159680930e-01 1.4783883258e-02 3.0699254230e-01
232 -9.7610905088e-01 1.4912776475e-01 -1.7458114350e+00 3.3755745425e-01 -2.1718987034e-01 -5.0574926184e-02
233 3.0614531285e-01 8.7974322076e-01 7.7015281731e-01 -1.9431452166e-01 -4.4556954375e-02 3.9960779648e-01
234 6.2572497922e-02 6.1058720298e-01 -5.2420467788e-01 -2.2712302466e-01 -1.2484712362e-01 -4.7330324583e-02
235 -1.2931303537e+00 2.2429284961e-01 4.1191279289e-01 1.6970246571e-01 -1.6253086359e-01 2.9995697470e-02
236 -9.8219666044e-01 4.1393544944e-01 -6.4636141088e-02 4.8706280902e-02 -1.8418591506e-02 -4.1736172090e-02
237 -5.0514507183e-01 -1.0650432681e+00 2.3785006093e+00 -3.2429081343e-01 3.4271909017e-01 -1.8161286965e-01
238 -1.2352489463e+00 -2.2861137320e-01 4.3757569217e-01 8.6956948670e-02 1.0270393828e-01 -1.9816489342e-01
239 -2.9449239673e-01 -8.6053564585e-01 -4.1114578399e-01 2.7839425550e-02 2.3025853311e-02 -3.5107229217e-03
240 -1.1232764116e-01 8.6538978665e-01 2.2334943044e-01 4.5173658389e-01 -8.7757267394e-02 2.3702820434e-01
241 2.8711204593e+00 -1.3501330100e-01 9.3538177009e-02 -1.1379449938e-01 1.9279498642e-01 -1.5604080276e-01
242 1.4066766838e+00 -1.2902292468e+00 1.9294455125e-01 -7.1902254355e-02 2.7414700470e-02 8.2637247999e-02
243 -2.2061085481e+00 -1.9155707794e+00 -1.7311601176e+00 6.5757344576e-02 4.1821590928e-02 -1.9956041539e-01
244 -2.1735715492e-01 -3.9204431347e-02 -1.0143046558e+00 2.7134576986e-01 1.1241452843e-02 1.7557367168e-01
245 -1.1230929174e+00 1.8730010074e+00 -1.2308721589e+00 -1.6359349102e-02 -1.5277562205e-01 3.5476394786e-02
246 5.6712661754e-01 -2.3905246212e-01 8.1971287131e-01 4.6233605516e-01 -2.0538194374e-01 -2.7369549682e-01
247 -9.0214168946e-02 -1.2847484591e-02 2.9105200231e+00 -1.8125882929e-01 2.0119310548e-01 -4.8666199898e-02
248 9.6837395497e-01 1.0765985657e-01 5.2543539222e-01 1.1021492696e-01 -6.1053255819e-01 -1.5422520559e-01
249 5.4220595809e-02 -1.7768155291e-01 4.1015531342e-01 3.3008326618e-01 3.0367134028e-01 1.2598071488e-01
250 -2.1647206190e+00 -5.5107620721e-01 4.5400994253e-01 4.7620424996e-02 2.9788833128e-01 -6.8867207518e-02
251 4.5308039057e-01 -1.5697140385e+00 1.4739508097e+00 1.0917606657e-01 -2.2033461526e-02 -6.3025605329e-02
252 1.5922667670e+00 -3.1850702052e-01 -4.1798803126e-01 3.2698879161e-01 -4.6377885713e-01 1.3076553579e-01
253 -7.5751385285e-01 -2.0183872862e+00 -1.1753554818e+00 -9.4711806586e-02 3.6480941668e-01 -7.1488761075e-02
254 1.9426034613e-01 -8.0228254319e-01 -9.2119767895e-01 9.6983634005e-03 9.6762859889e-02 1.4455921379e-01
255 2.1072232972e-01 1.4826334586e+00 -7.1429622306e-01 1.1190314754e-01 -1.7886590944e-01 2.8886272821e-02
256 4.4125939200e-01 5.4186861131e-02 -1.0872858973e+00 1.7083565763e-01 7.6797210853e-01 -1.6464351822e-01
257 -6.1548986923e-01 8.7211354151e-02 -2.2625626800e+00 -8.3817377563e-02 -3.4526029915e-01 2.3229302141e-01
258 3.4251501374e-01 -4.6983919334e-01 -3.2439101009e-01 3.2898339044e-01 3.9819176338e-02 1.8364369649e-01
259 -1.0559750159e+00 -2.5433349019e+00 -4.4261700793e-01 1.2740731579e-01 1.4374054023e-01 4.9497983419e-02
260 2.4991711232e-01 5.3172112707e-01 -4.5262445663e-01 2.9017981482e-01 1.9846091770e-01 7.6643868067e-02
261 1.5878283355e+00 3.9771616611e-01 9.5081119463e-01 -1.4034506086e-01 6.8129624432e-02 2.8764129005e-01
262 -1.1638506384e+00 3.3295154121e-01 8.4021849703e-01 -3.1491428001e-01 -5.8305543191e-02 -8.3364661488e-02
263 -1.7655938365e+00 -5.8914114596e-01 1.3719401812e-01 2.2070988451e-01 4.4810516441e-02 -2.6618704434e-01
264 -1.5625301204e+00 -1.1747490559e+00 5.0604829992e-01 1.6682573387e-01 1.6187884158e-01 -1.7235643578e-01
265 -5.3760516162e-01 -3.1580954666e-01 2.7986133078e-01 -2.3669638055e-02 -3.1922511187e-01 -6.2979739834e-03
266 -2.8902525479e-01 -5.7521087511e-01 8.9715254894e-01 3.2136382901e-01 1.0225807431e-01 2.7864678118e-01
267 -5.2388589908e-01 6.6512568644e-01 1.8708940770e-01 2.6036747142e-02 5.1935185443e-02 2.2836882801e-01
268 4.7818919021e-01 1.5756343614e+00 -1.5382208661e+00 -3.4516814291e-01 6.3018746097e-02 2.0128297063e-02
269 -8.9840053084e-01 -1.9642912566e+00 -7.8944844719e-01 -1.4012959378e-01 7.9387983946e-02 -1.2741545369e-01
270 1.0782896701e+00 1.6872144082e-01 7.3459300311e-01 3.8335140237e-02 -1.6221090064e-01 -1.7036419650e-01
271 -2.2771763821e+00 9.3605870714e-01 -1.1449082987e+00 2.7495715920e-02 4.3596407856e-01 2.1269059989e-01
272 1.3750161382e-01 -1.6048942471e+00 2.2050357120e+00 -1.0642647732e-01 7.7447935061e-04 9.0126313921e-02
273 5.5011621619e-01 -2.0920302721e+00 9.6272845089e-01 1.8194675981e-01 -8.9945179316e-02 3.1118339911e-01
274 -5.2377496198e-01 -2.5100129483e-01 -6.4888100274e-01 -3.4474122767e-02 -7.2008309896e-02 2.4023225766e-01
275 -1.3167592424e+00 2.4764391606e-01 -5.8180342065e-01 -2.2977761262e-02 8.6684990056e-02 2.4266918936e-01
276 3.8506211932e-01 7.1671905322e-01 1.0329117173e-01 3.8973412547e-02 1.5269229405e-01 3.0370149357e-01
277 6.4352104146e-01 1.4030893335e+00 -9.9345957156e-01 1.5012402908e-01 1.3433473536e-01 -3.5827494390e-01
278 9.2531459158e-01 -7.7277932322e-03 2.1995265439e-01 -4.2498152709e-01 -4.6411020589e-01 3.0987927692e-01
279 1.5538745023e+00 -1.3873213686e-01 3.9748533509e-02 -1.2418263018e-01 -1.3123879573e-01 6.7623204953e-02
280 -1.5480395950e+00 -1.2046529242e+00 1.2532426764e+00 -2.3835518470e-02 -5.1525205268e-02 1.1108456517e-01
281 -1.8153675780e-01 2.5441722817e-01 -5.7395471399e-01 2.3972408840e-01 1.7894837827e-01 -1.2359182467e-02
282 -1.1763838017e-01 7.3749161748e-01 -2.2622346036e-01 -3.0864967592e-01 9.2692446416e-02 4.4919757472e-01
283 4.9353023811e-01 6.8429924971e-01 8.1079107675e-01 4.8521253349e-01 -6.7575472265e-02 1.8660246225e-01
284 1.9667564698e-01 1.6002947981e-01 1.4153227755e+00 1.4552151480e-03 -2.7239666877e-01 6.1246476261e-02
285 -3.1824924724e-01 -4.2704099726e-01 -1.5208827406e+00 1.8769596541e-01 -1.0788132338e-01 -6.5243815678e-02
286 9.4567253194e-01 -1.8455799254e+00 -1.3198341212e+00 3.1093322618e-01 -7.6060061486e-02 -3.9920814618e-02
287 8.7607745106e-01 -1.5100701024e+00 8.8201393221e-01 3.4130137430e-01 6.9878360388e-02 6.4098124344e-02
288 -7.9053184063e-01 -1.8235977101e+00 1.5585056610e+00 -8.2692817681e-02 1.2053826583e-01 3.7322103622e-01
289 1.3030497447e+00 -5.6689998856e-01 -1.5606837711e-01 -9.2724021205e-03 -3.7144182087e-01 -5.1362432730e-01
290 4.6649054379e-01 6.9257987682e-01 2.6670465852e-01 1.4261416783e-01 -3.8601415613e-02 3.4485870364e-01
291 -2.7280959180e+00 9.9219605275e-01 9.5824484874e-01 1.8806328360e-02 -3.6002617497e-01 3.6635323178e-02
292 -2.7294268641e-02 3.4142641639e-01 -9.3844329837e-01 8.8331961444e-02 -6.7469539068e-02 -3.7284267823e-03
293 -1.2219998577e+00 1.7258375763e-01 -2.3790899841e-01 -9.9746838380e-02 9.9727522551e-02 -3.3727429548e-01
294 8.3194290657e-01 4.0792914907e-01 1.8085824234e-02 2.5642769192e-01 -5.9057984098e-02 1.0937918068e-02
295 6.0475622574e-01 -4.2391332433e-01 6.5352358211e-01 1.4827058318e-03 -3.1143548553e-01 -1.2078195172e-01
296 1.0471369116e-01 -2.1527220697e+00 -1.2503990934e+00 4.3446249364e-02 -1.3021560707e-01 -1.2493208353e-01
297 1.4050299384e+00 6.3356964813e-01 -3.1310884301e-01 1.5167296237e-02 3.2647285769e-02 6.7306499824e-02
298 -3.2602777396e-02 -3.0191213221e-01 1.3865760666e+00 -3.2973519515e-01 -4.2918932015e-02 8.8603220657e-02
299 1.0825161638e-01 6.0921858289e-01 7.5146948615e-02 8.4456301624e-03 8.5263099331e-02 9.3948392809e-03
300 3.4001243732e-01 1.4320165802e+00 -5.2904130545e-01 1.3405107489e-02 -2.9820609598e-01 -1.3736845461e-01
301 5.0088008495e-01 1.0923666612e+00 1.4139203818e+00 -5.7852772112e-02 4.1103593464e-02 -4.0210717465e-02
302 9.8554768107e-01 3.2637443467e-01 -2.1504021015e-01 -3.3866172343e-02 -4.2142773866e-01 4.5835187529e-02
303 -7.5970192811e-01 -2.0733382802e+00 -1.7029613458e+00 -3.5776681254e-01 -5.1974370526e-01 -9.0204503962e-02
304 -2.4111053010e-01 -1.0432600640e+00 -1.4516826930e+00 -3.4848611587e-02 1.8363719410e-01 -5.0579525303e-02
305 -1.0803357666e+00 2.3250768935e-01 -1.4285614304e+00 -3.5761081010e-01 -1.6753144414e-01 -2.2819308598e-01
306 -1.2913391813e+00 1.9805538787e+00 -2.2438647257e+00 1.8045338531e-01 5.4011639961e-02 -1.3086841571e-02
307 4.0692210673e-01 4.6056119981e-01 7.4882091759e-01 1.8127251207e-02 4.3004015500e-02 -4.3311046298e-01
308 -1.5482027571e+00 1.2047273109e+00 4.2355675608e-01 9.3465861827e-02 -5.2959574746e-02 2.6723419494e-03
309 1.5601093903e+00 -1.3001611600e+00 4.9271506865e-01 1.7426063075e-01 -1.2115038600e-01 4.9050134498e-01
310 1.9200611110e-02 1.2943110338e+00 -1.9941519527e-01 2.5271919550e-01 -2.5448716808e-03 -3.1151895048e-02
311 1.8175224169e+00 5.9001807031e-01 9.5795601175e-01 6.9093041012e-01 -1.6236724976e-01 7.0187471469e-02
312 8.1716207188e-01 -1.7192010650e-01 1.0619150772e-02 -5.0299810572e-02 1.2599075029e-01 4.2337602850e-02
313 -5.2970317096e-01 1.4287581628e-01 -3.1135754922e-01 -2.1042593856e-01 1.3065381563e-01 7.7340404335e-03
314 -5.4021203295e-01 -1.7720979615e+00 -3.0353653986e-01 2.1544248059e-01 -2.5652075589e-01 1.3753077102e-01
315 -2.4770462006e-03 -1.2493194990e+00 8.2854355772e-01 -1.5797776726e-01 1.5299150566e-02 -3.2876189072e-02
316 -3.6205482167e-01 -5.3841279363e-01 -3.0380742590e-02 -4.1974322437e-03 3.8395582721e-02 1.1150731115e-01
317 -1.1584533729e+00 -1.6906528571e-03 -4.7770095991e-01 4.5949411716e-02 -1.7381928655e-01 1.8332669792e-01
318 1.7677730011e+00 6.6068414026e-01 1.6090248529e+00 3.8157543059e-04 -6.4680839250e-02 -5.9902717912e-02
319 5.9240793914e-01 -2.3656371441e-01 4.9906128712e-02 2.9694401955e-01 2.4023336120e-01 1.9816471360e-01
320 6.2372267705e-01 -2.0328804287e+00 1.4340481259e-01 -5.6768345092e-02 2.1969536718e-01 1.4918913867e-01
321 9.5119115097e-01 -1.0051788500e+00 -8.3330850927e-01 2.2153103648e-01 3.5082187438e-01 -3.1639234209e-02
322 -8.7677506692e-01 1.8443916406e+00 7.9735098304e-01 1.0615169219e-02 -1.1834270388e-01 -2.8932597534e-01
323 1.7145583426e-02 -1.1632880379e-01 8.4821628612e-02 -2.6233071377e-01 1.9276766761e-01 -1.3828218574e-01
324 1.8358858327e+00 1.3174097623e+00 -3.8722469647e-01 2.4040279319e-01 2.1204522844e-01 2.5250129924e-01
325 -1.4963369926e-01 1.1530920319e+00 1.0883822057e+00 6.1235338835e-02 -6.6265337541e-02 3.8937727267e-01
326 8.4268348944e-01 -2.2332928031e-01 -2.9995472531e-01 1.7725859223e-02 5.4669089428e-02 -1.1708892263e-01
327 6.5255335670e-01 1.4270933022e-01 5.6118822621e-01 -6.8020931152e-02 2.6911643784e-01 -1.7428662642e-02
328 1.8238205827e-01 2.4246752546e+00 1.2909552041e+00 -2.4439806328e-01 -2.8689130232e-01 -1.2896321535e-01
329 1.4194564721e-01 -1.8020970087e-01 -4.7338878256e-01 6.9738259319e-01 -4.2792492047e-01 -5.3659746372e-02
330 -2.6007330424e-01 -1.5159697648e-01 1.2986140159e+00 5.8283200287e-02 5.3102929800e-01 1.6375176199e-01
331 -1.0284690400e+00 -2.9249700756e-01 -1.4414704076e+00 6.5456301041e-02 2.5471766549e-01 -1.4536421576e-01
332 -1.2402028892e+00 -5.0924725043e-02 -1.1935380172e+00 -5.9232250215e-02 1.1020361908e-01 -2.0377109149e-01
333 2.0379038263e-01 2.4790708176e+00 -1.4320481598e-01 -2.3555989821e-01 5.1736474671e-02 1.3728640437e-02
334 8.0691071409e-01 -4.7348447656e-01 1.9696576426e-01 2.1923151128e-01 1.1159229651e-01 -2.3869507738e-01
335 5.2550004689e-01 -8.2084519850e-01 -7.4757505278e-03 -6.2856592393e-01 -2.7743139839e-02 -2.4673221187e-01
336 1.7176992056e-01 -4.2422514648e-01 -5.6826189018e-01 -3.5445465749e-02 -1.7083096718e-01 1.5927699512e-01
337 7.3568266794e-01 -1.3359541738e+00 -1.1959571447e+00 -2.5591197776e-04 -2.0249202637e-01 3.7249893615e-02
338 2.5069968421e-01 2.5133751749e+00 1.3227348843e+00 -1.5301898238e-01 6.7533585837e-02 8.1998423168e-02
339 -1.1287141220e+00 1.4500948855e+00 -1.2319409873e+00 -1.5535451651e-02 -1.0248346003e-01 5.7386833731e-01
340 -9.8324947756e-03 -1.6151103779e-01 -7.4787155487e-02 -1.1730184505e-01 -2.0629148789e-01 -1.0806156278e-01
341 1.1345108874e+00 -3.8665044053e-01 1.5500479063e-01 -1.7535770242e-01 -1.3184148504e-01 1.3300080242e-01
342 4.5540273286e-01 2.0314463545e+00 -2.6356118702e-01 -9.0031190347e-02 -2.9890789117e-03 -9.8382091140e-02
343 1.6963343070e+00 -2.9855418675e-01 -2.5150243015e-01 -2.9903900002e-01 4.6626927011e-01 -2.5838063337e-01
344 -1.4514747644e-01 6.4341541204e-02 1.8304130626e-01 -3.6582223178e-01 7.2431502839e-02 6.7412611705e-02
345 6.6030677559e-01 -1.7702708239e-01 1.6563027315e+00 1.0969852097e-02 -8.7128049238e-02 2.1852870381e-02
346 -1.2023710547e-01 -6.0607826572e-01 -9.7852288450e-03 -7.8993953907e-02 -3.2320210645e-01 2.5514581803e-01
347 -5.4248642818e-01 -3.7781842263e-01 -1.9618140573e+00 -1.1757619600e-01 6.2630823454e-02 -1.2343133758e-01
348 7.5137692920e-01 -5.6880458015e-01 9.7962892155e-01 3.0076978006e-01 -8.6689900503e-02 1.6114931578e-01
349 3.8721499578e-01 5.2436448650e-01 -8.9193625984e-02 -1.4160298941e-02 4.2309602774e-01 -6.1374453096e-02
350 -1.0559281682e+00 1.8531070442e+00 4.9184118932e-01 1.3568891309e-01 1.8318962747e-01 7.0741014249e-02
351 -3.7995188600e-01 1.0503889562e+00 1.8636881005e+00 1.6510426882e-01 3.0487713733e-01 -1.3423278860e-01
352 -2.9850049890e-01 -1.5203698475e+00 -9.7601238579e-01 -6.6209635728e-02 5.2347956914e-02 7.9653487113e-02
353 -3.1643724037e-01 -6.1016374629e-02 -6.5494876882e-02 2.1608152339e-02 1.2938057963e-01 -6.1211021975e-02
354 6.5045221965e-01 4.3031244658e-01 4.5856927212e-01 -9.2799101075e-02 -4.7299553668e-02 -3.0887572501e-02
355 8.0734550936e-01 -6.8671411827e-01 3.9778662383e-02 -7.6825618554e-02 -5.4663045122e-05 7.8414020712e-02
356 1.5445323488e+00 -2.4779415735e-01 3.8128529993e-01 -9.2063930659e-02 9.5257444720e-02 2.0487805794e-01
357 -9.9970532899e-01 7.4301847693e-01 1.0311796681e+00 -2.1927903436e-01 3.3472713485e-02 -1.9307276453e-01
358 -1.5486222285e+00 1.2773266669e-01 1.1054465674e+00 1.0150530388e-02 -2.3700129379e-02 8.5433231251e-02
359 -7.6844994132e-01 4.1127194715e-02 4.2718100606e-01 1.0520387298e-01 1.8375211051e-02 -4.4831868594e-01
360 3.1911915919e-01 -2.2830805488e-01 1.0616932724e-02 6.2001233488e-02 6.8163070932e-03 7.5958452271e-02
361 6.1727679872e-02 -8.9203482788e-01 -1.1113125308e+00 -3.9129833458e-01 -1.3938986007e-01 -1.3101175478e-01
362 -9.7402687656e-01 -2.0906048284e-01 5.9533475513e-01 -2.0431337501e-01 1.1909434993e-01 6.1840293889e-02
363 1.2673662594e+00 -9.5112153189e-02 -1.0260205107e+00 2.1817634386e-02 -8.9245369085e-03 -2.6684888259e-01
364 -2.6978962207e-02 -1.7213550690e-01 -1.4548746350e+00 -9.2604748866e-02 -4.0626140189e-02 1.4165482767e-01
365 4.9818539091e-01 -1.2959635719e-01 1.2271837263e+00 6.6653001683e-02 1.1160641904e-02 8.0202441948e-02
366 3.5900281110e-03 -4.3817403654e-01 -3.6146350452e-01 -1.6659633613e-02 3.7784176316e-01 -3.4026361182e-01
367 1.7793049638e-01 9.6791870604e-01 1.4616477717e-01 -1.6000025747e-01 1.8045967968e-01 3.4721155642e-02
368 1.4119707945e-02 -3.2825962766e-01 -4.7196013274e-01 1.3278856032e-01 -2.3113602364e-01 -8.5864950011e-02
369 -9.9187460464e-01 1.3855844456e-01 -1.2449607330e+00 -1.9406879564e-01 -3.9787324297e-01 -3.8069160998e-01
370 -8.1756196929e-01 4.6857905202e-01 -4.3678128552e-01 -1.3176461652e-01 4.1268549151e-02 -8.9635825857e-02
371 2.0959251625e-01 1.9035263818e+00 9.6169014089e-01 3.4122686021e-01 2.7359421897e-01 2.8613099308e-01
372 4.8654693130e-01 -1.3790270432e+00 1.4404281746e+00 1.3996619333e-01 5.7360347594e-01 -1.5403455308e-01
373 1.1522659692e-01 1.0826525025e-01 -2.6520691012e-01 -2.8573565188e-01 -1.3680215259e-01 -1.2379170989e-01
374 -2.0895190154e+00 9.2149213297e-01 -9.8337071857e-01 -2.4248053855e-02 6.2272712142e-01 4.5615325806e-02
375 2.7519940148e-01 -1.0445237991e-01 2.7960018438e-01 -6.1322053611e-02 -6.5851263892e-02 5.7513767416e-02
376 -2.2732438860e-01 1.1887584862e+00 1.9100287563e+00 6.0750702575e-02 -3.1236334370e-01 -9.3317508785e-02
377 -1.5789959217e-01 1.0633337647e+00 8.4724498873e-01 8.7169747817e-02 1.2633713726e-01 -2.3915953543e-01
378 1.1350029626e+00 -6.1219156535e-01 1.2111704516e+00 3.0961706363e-01 -1.4348345323e-02 -1.5122120930e-01
379 -5.1732333915e-01 -1.1062772759e+00 3.5868374380e-01 -9.5487663955e-03 1.5844360391e-01 2.1042508488e-01
380 -4.8240455190e-01 2.5608180576e+00 6.4316202369e-01 1.3591858057e-01 3.8349151191e-01 -1.0230777432e-01
381 5.5643287895e-01 -7.6062240065e-02 2.6974993424e-01 6.6648326039e-02 -3.4739145474e-02 1.2681314904e-01
382 6.6558924562e-02 -2.0166700008e+00 5.3534359053e-01 -8.2861318110e-02 6.1874933345e-01 -3.3862368144e-01
383 3.1680581662e-01 7.6317518399e-01 5.0991790495e-01 -1.5223086090e-01 -5.4219159629e-01 -2.8205965280e-03
384 1.5646818118e+00 1.6777360671e-01 1.5170399056e+00 -9.5077784768e-02 -5.7386393112e-02 9.6115797658e-02
385 -3.1752905028e-01 -7.6249650727e-02 -8.8928668771e-01 -2.0029059850e-01 -6.3571977580e-02 2.1886575572e-01
386 -1.2135580939e+00 1.7565744783e+00 3.5513343130e-01 2.3177649638e-01 -1.2626269106e-01 -9.5016663950e-02
387 1.4146163013e+00 -6.0951143985e-01 -1.1916198350e+00 -7.0726688081e-02 -2.0358242327e-01 1.8627010217e-01
388 -8.3853467065e-02 1.2981792828e+00 4.1952091050e-01 -5.4318551596e-02 5.2597444163e-02 4.1281187577e-02
389 4.5905985120e-01 -2.0621052502e-01 -3.4421311289e-01 2.1915180197e-01 -3.4555098252e-01 1.4545584482e-01
390 2.8043725990e+00 1.1359905465e+00 -1.4814827967e+00 5.1608397112e-03 -5.8073729183e-01 -3.0030963175e-01
391 -2.3786514671e+00 -4.0065605496e-01 -6.3928494794e-01 5.1124423507e-02 -1.5483357925e-01 -1.7277464774e-02
392 -1.6522280927e+00 -6.9856437769e-01 3.7995978485e-02 -1.6513770337e-01 -2.4869176609e-01 -1.3558961509e-02
393 2.4774481425e-01 -1.7456800135e-01 8.3808207997e-01 9.9745487757e-02 1.9817128199e-01 1.4447177276e-01
394 1.1055273128e+00 -2.0114306793e-01 1.9993615786e+00 -1.1234019518e-01 -2.2470947850e-01 9.0030960313e-02
395 3.7210722402e-01 5.7719622999e-01 -1.8137367834e+00 2.3162084633e-01 -5.2361598825e-01 -2.8531369796e-01
396 -1.0831174293e+00 2.0646135853e-01 3.0203608909e-01 -5.4860658713e-02 -2.7109193318e-01 2.1080587227e-01
397 -3.2170836798e-01 -7.5414027561e-01 -6.1159862778e-01 2.2590499345e-01 2.8442566014e-01 2.0315777019e-01
398 1.2153433030e-01 4.7084243333e-01 4.2553337150e-01 -4.4388230298e-02 -1.7712867848e-02 -1.1976786945e-01
399 1.4454752099e+00 9.8774090240e-01 -9.3434825289e-01 -8.1603942326e-02 1.0293489088e-01 -4.4640557017e-02
400 1.4920661020e-01 1.6468783235e-01 1.5693366504e+00 5.6361086153e-03 -5.5994019917e-03 -2.7529679432e-02
401 1.3728271803e+00 4.5637415686e-01 -1.1837893009e+00 -2.8188221107e-01 2.3651940655e-01 1.0178644901e-01
402 -5.4938280360e-01 1.7807449549e+00 9.5554100666e-01 -5.3195602061e-02 -1.3988333000e-01 -3.3340574868e-02
403 3.5448328758e-01 -6.1221363953e-01 6.5075258257e-01 -1.3816540865e-01 -5.4422236791e-02 -5.0243149811e-02
404 6.6901129876e-01 5.9016518449e-01 -6.3119722626e-01 -3.1409665912e-01 7.4783812667e-02 -1.3012606709e-01
405 6.2598319857e-01 1.6021992010e+00 3.0444592807e-01 -4.0075529178e-02 -4.0172444995e-02 1.3997987435e-01
406 -1.6928469884e+00 -2.6716793866e-01 -1.1506807759e+00 2.3146575075e-02 2.1585127005e-02 -2.4329730861e-02
407 -1.6671381996e-02 1.8110315186e+00 -5.5075482640e-01 -3.5850275711e-01 2.0223997783e-01 -4.5308849509e-01
408 -1.6407279760e+00 -8.5895461689e-01 6.6877128134e-01 -7.3676318405e-02 -9.9064215926e-02 -5.7222429796e-03
409 1.2707673792e+00 -7.9976804949e-01 -1.2315412379e+00 4.8085796117e-04 -2.6383294024e-01 -1.2301749250e-01
410 -1.0736732579e+00 -1.3780068296e-03 -9.3141544363e-02 1.1325155496e-01 -1.8851628106e-01 5.7810191225e-02
411 4.6782648090e-01 7.4303569102e-01 -1.2378554612e+00 -3.0935124804e-01 1.9123672191e-01 -5.0474480486e-02
412 4.0353123516e-02 -3.9749057864e-01 2.0654277375e+00 5.1488147547e-02 -2.7340093847e-02 -1.5483425960e-01
413 -1.8093053591e-01 -5.1639105085e-01 2.1413124849e+00 -4.4924882172e-02 -2.1970741189e-01 9.3534713720e-02
414 2.2495777596e-02 -1.9869959197e-01 -1.4040940002e+00 1.4386174593e-02 -2.3328069601e-01 8.3013656565e-04
415 -1.3589565427e+00 9.5588269691e-01 4.7386008276e-01 -1.0084937673e-01 3.0063804617e-01 -9.1474425785e-03
416 1.0156275567e+00 4.3350208913e-01 1.2558759809e+00 2.4436303359e-01 2.0964806734e-03 5.4138406287e-02
417 -2.3047155769e-01 -5.1850753688e-01 5.5683125645e-02 2.9692349011e-01 3.5103852068e-01 9.8905791866e-02
418 -1.2765762149e-01 -1.9895687055e+00 3.3992215033e-01 -3.6067970257e-02 -2.2286232969e-02 -1.5033566759e-01
419 -1.5599850541e-02 3.2282017035e-01 -6.6357641281e-01 -6.3000908645e-02 3.6114684175e-03 1.4456390534e-01
420 2.2782989617e+00 1.7985616322e+00 -3.1183504970e-01 3.5780382185e-02 1.8920055546e-01 -2.4053315296e-01
421 2.1614826324e-01 -5.6184802867e-01 7.7613918570e-01 -1.3035333320e-02 -7.3197458297e-02 2.5140152921e-02
422 9.6682035484e-01 1.6133890468e-01 1.7986163565e+00 -2.2599104374e-01 3.3296789894e-01 3.0047337010e-01
423 -7.7690330712e-01 7.7791648170e-01 -4.1636573858e-01 4.7595968111e-03 1.6491373551e-02 -6.1861051745e-02
424 -4.2284401499e-01 -5.7467292967e-01 -9.7857639614e-01 -2.8751611251e-01 1.0149254044e-01 1.0885141605e-01
425 1.2898882370e+00 -2.1197609698e-01 -2.5108355906e+00 -1.2178486373e-02 -1.9297329902e-01 -3.9283378716e-01
426 -1.5060513572e+00 2.6535271348e-01 8.5005954651e-01 3.8378077886e-01 -2.1362663680e-01 3.2937018147e-01
427 -1.6459687150e-01 1.5184802787e+00 5.2894587808e-01 4.2356232213e-01 -7.7078857538e-02 1.0432291284e-01
428 -6.6972660016e-01 2.6585629061e-01 -2.1450358102e-01 -2.5853988679e-01 -2.0067152224e-01 2.8800921186e-01
429 6.8704273833e-01 3.8649798164e-01 6.2826172942e-01 -7.5266926482e-02 5.5193834219e-02 -2.1731480582e-02
430 -1.7263056535e+00 3.2272308948e-01 2.6508216037e+00 5.4708098142e-02 -4.3529503865e-02 1.0267879014e-01
431 5.6008297417e-01 4.2755972808e-01 1.6457543851e+00 -2.7258216367e-01 -2.6486137233e-01 2.5154151763e-02
432 7.5461549982e-02 -4.6422264754e-01 9.8048872712e-01 2.6664295120e-01 3.6811182180e-01 -3.2904565021e-01
433 -9.6838249300e-02 3.8914245053e-01 2.8556078487e-01 7.7167630161e-02 -1.2779458842e-01 -3.1719142172e-01
434 4.3501771135e-01 9.1440554849e-01 -6.0884191987e-01 -8.3525809346e-02 1.3214010958e-01 -1.6557258327e-01
435 1.1457395541e+00 -1.1745790325e+00 1.5727707729e+00 1.2023559588e-01 3.2575544820e-01 -8.2347614405e-03
436 2.5055910930e+00 1.0546877831e+00 -1.2247459458e+00 -2.0686566567e-01 -1.4495796880e-01 -3.4312259483e-01
437 8.6530733900e-01 -1.7404697814e+00 4.0738110781e-01 2.3178961364e-01 -1.0069860236e-01 -6.2828455608e-02
438 9.0679985532e-01 -5.0987047148e-02 -8.4609982349e-01 8.9444029490e-02 1.1290318351e-01 -2.6703299316e-01
439 -5.0569729124e-01 -1.4925402753e-01 -1.8283429531e-01 -5.9555579301e-02 2.6116591519e-02 -6.4386303491e-02
440 8.0192930242e-02 -1.1222616018e+00 -9.2384400641e-01 -4.7015269636e-02 2.3575366375e-02 -5.2114260509e-02
441 -6.3246614884e-01 -1.1182260563e-01 -1.8406139372e-01 5.2609028936e-02 -1.2901352093e-02 1.8597515794e-01
442 -5.5839796382e-01 7.9330925854e-01 -4.1463190652e-01 3.7762297071e-02 -5.6143480048e-02 9.4513610281e-02
443 3.7796476363e-01 -1.0311430029e+00 -6.6929095190e-01 2.1157397459e-02 4.3770977478e-02 1.8478394826e-02
444 1.0954109728e+00 -4.8410865049e-01 1.3761731337e+00 -1.7282748978e-01 -9.0237933354e-03 -5.4690528200e-02
445 -1.4592411057e+00 1.1862180482e+00 -6.7633157890e-01 -4.4227749558e-02 -2.4485507649e-01 -3.0170418763e-01
446 -1.6479567926e+00 -2.5460368064e-02 -8.0179478395e-01 8.6799245694e-02 -2.0193717594e-01 1.1881380582e-01
447 9.4305517510e-02 -2.1605761738e-01 -2.6812931703e-01 -7.0094908748e-02 1.0797388256e-02 3.5638987046e-02
448 -1.0699377405e+00 1.8226971733e+00 -1.2504889799e-01 -1.3714235159e-01 1.2709293746e-01 -1.8811481556e-01
449 1.0132797274e+00 1.5424930368e+00 1.0179197106e+00 7.2226785996e-02 -4.1532196885e-02 -2.3962125945e-03
450 -7.5305433694e-01 7.8329331357e-01 -2.8515172141e-01 1.0197322105e-02 -1.8565564109e-01 4.0803596572e-01
451 -3.7181196331e-01 9.0617847491e-01 1.7587353590e+00 -2.0515404661e-01 -1.1061980420e-01 -9.6640463339e-02
452 -1.2935714642e+00 1.1261976360e+00 3.3231354422e-01 3.1535191176e-02 -1.8896733744e-01 1.7420208408e-02
453 -4.4794476306e-01 -1.4575194695e+00 -8.5159252708e-01 -1.1141819553e-01 -3.2713710429e-01 -1.9550595512e-01
454 -1.8717331177e-01 -8.7379184578e-01 1.2697213706e-01 6.8103827668e-02 5.5093973411e-02 1.2262311930e-02
455 3.5443589926e-01 -1.6662445907e+00 -2.1520704008e-01 -8.6428213044e-02 -1.1939297133e-01 4.7049326918e-01
456 -2.2762357614e+00 -1.1100174456e+00 -1.8949987630e+00 -9.6063407825e-02 1.3027657686e-01 -9.7539878937e-02
457 -3.3831715799e-01 -1.1865215754e+00 6.7598082985e-01 7.8930543267e-02 -1.1761269572e-01 8.7674665946e-02
458 -1.6239169109e+00 8.8638046185e-02 1.1482638443e+00 -2.9054160069e-02 5.3612997874e-02 4.0512482058e-02
459 4.3263964076e-01 1.1007193470e+00 -1.6795968169e+00 -1.2162704508e-01 -3.7828677681e-02 7.0236717467e-02
460 -5.7980714538e-01 -1.5600136373e+00 7.7248194538e-01 1.2392508424e-01 2.7587076522e-01 6.0583865452e-02
461 5.8467225520e-03 -1.4899233246e+00 2.3967905243e-01 9.3727085140e-02 1.7983147042e-01 2.2473853854e-01
462 -1.0597275944e+00 -3.0318206860e-01 5.1017425811e-01 2.3354569684e-01 -9.7410299067e-02 2.7314704416e-01
463 1.7458421029e+00 -5.4573511011e-01 -1.3958367280e+00 -1.0591179899e-02 -3.4129638967e-02 -3.7318009729e-02
464 -5.3542424612e-01 -5.6046375469e-01 -8.0912339879e-01 3.5001430225e-01 3.3972548418e-01 -9.6420289136e-02
465 -1.6594560384e+00 -1.0085932147e+00 7.7646558614e-01 1.8657351549e-01 8.0679013148e-02 -9.9905540105e-02
466 -5.9222567434e-02 -2.0293897831e+00 1.5410875361e+00 2.8433664263e-01 6.9058891728e-01 2.2767752414e-02
467 -1.0588739602e+00 -9.8729880871e-01 1.7357920011e+00 5.2391345541e-01 3.0208148350e-01 -1.5479035117e-01
468 -1.8374301360e+00 -1.6643163874e+00 -2.4638864406e+00 1.9066852559e-01 -3.7822109024e-01 -1.4920012890e-01
469 -6.1103431286e-01 2.9756914597e+00 8.6431922599e-01 1.9237246172e-01 -1.0099603768e-01 1.7984595555e-01
470 -8.1115451267e-01 3.9508872251e-01 -4.4041392171e-01 1.3239692546e-02 -2.5086777216e-02 7.1884730789e-02
471 8.4540650019e-01 -2.4744436505e+00 -2.0086926289e+00 -1.8620838322e-02 -2.7541682524e-02 -1.6166991149e-01
472 1.8044492141e+00 5.8097947804e-01 -8.7507453571e-01 8.2817389245e-02 1.3802744898e-01 2.5794912457e-01
473 8.4595463228e-01 -1.8846175106e+00 -1.2295091299e+00 1.4679874880e-01 6.2874581929e-01 -6.5621108740e-02
474 -2.1439258835e+00 -8.9995808856e-01 -6.2971681682e-01 1.4304901568e-01 -2.1903851796e-02 9.7708566294e-02
475 -8.0494352495e-01 5.4266776227e-02 -3.9976195215e-01 1.2215918416e-01 -2.6826721986e-02 -4.9435238951e-01
476 -2.1601210936e-01 3.9502779393e-01 -5.0814482631e-01 -1.3872072996e-02 -2.7753666251e-01 8.5223488941e-03
477 2.0198964514e-01 -1.3097072691e+00 -6.6891044765e-01 1.6738179464e-01 -9.0331863574e-02 -1.6722207434e-02
478 -1.1794727723e+00 2.1046854751e-01 -1.3012527672e+00 -5.6183211117e-02 -1.7944780327e-01 -1.7659548896e-01
479 5.7468046854e-01 7.8006493112e-01 -7.8329315062e-01 -9.1490991562e-02 -1.4706413823e-01 6.0067978874e-02
480 1.4411908436e+00 -5.3155192281e-01 -1.1343896617e+00 -7.8587694465e-03 5.7306493191e-02 3.9283385088e-02
481 1.4041728563e-02 -1.3851447905e-02 -2.0139306428e+00 -2.2819081643e-01 -9.5084389927e-02 -7.7461220822e-02
482 -9.6034082950e-01 5.7836090404e-02 -1.0249530175e+00 2.9735690388e-01 -3.2763280399e-01 -4.9259328657e-03
483 -3.4805495576e-01 -6.2740391053e-01 -3.7789663612e-01 7.7801590936e-02 4.5849458509e-02 9.1146889460e-02
484 -2.4959005807e-01 8.4385224676e-01 -2.1735233270e-01 1.2768997589e-01 -2.4125697017e-01 -1.5530778343e-01
485 2.6561446327e-01 7.8325593591e-01 9.3462763998e-01 2.6028858117e-01 -2.9000784988e-02 4.5206466475e-02
486 -3.8109676873e-02 1.2339120044e+00 -2.9323399775e-01 2.2554394892e-02 -5.5105998434e-01 -1.5763432717e-01
487 -1.1156878557e+00 -9.0509155076e-01 -6.7525690203e-02 -2.2301289861e-01 -3.4680958018e-01 -3.3133543214e-02
488 7.0344151102e-02 1.3382973725e-01 -1.9692822859e-01 1.3580897625e-02 -6.7906161642e-02 2.2426418246e-02
489 9.4155632335e-01 -8.6939005857e-01 -2.3167861079e+00 7.9964433712e-02 1.1410481595e-01 1.6087452683e-02
490 -4.1605483484e-01 7.3819902410e-01 -4.6564847981e-01 -4.1096136325e-01 1.3758585089e-01 1.7771960304e-01
491 8.0035066275e-01 6.5287043981e-01 -1.2133233151e+00 -3.7300699283e-01 3.9938152308e-02 -1.8060964284e-01
492 1.2051796296e-02 -3.2986653585e-01 -8.5940091445e-01 1.2283619678e-01 2.3089980175e-02 -2.6733362392e-01
493 4.9917318895e-02 3.0411312610e-02 -6.3442469885e-01 2.1225726466e-01 -1.6952929500e-01 -3.8724796438e-01
494 9.2267358698e-01 -1.3106196416e+00 -6.4498244813e-01 1.5671744080e-01 9.8799077923e-03 6.3242871834e-03
495 1.0166987101e+00 1.2159810396e+00 -1.7839393330e-01 -4.4062845718e-02 -1.1261878170e-02 1.7850536260e-01
496 -4.4852224016e-01 -1.8486280225e+00 3.8313100804e-01 2.9732647988e-01 3.1278487608e-01 -2.2477041731e-01
497 -1.0118325624e-01 -1.9194755874e-01 -1.0866333646e+00 -5.1215488527e-02 -2.3828785285e-01 -1.1022218430e-01
498 -4.7818786753e-02 9.8136384265e-01 2.5822032303e-01 5.2839267721e-02 -4.0360246424e-02 -1.5437644056e-01
499 -1.3371713185e+00 -1.5885874292e+00 2.3157870270e-01 2.6863771428e-01 3.3547529083e-01 -1.3908092018e-01
500 1.3969561421e+00 8.0047164844e-02 -3.8618457929e-01 2.8250282526e-01 -7.5304587547e-02 -6.9623272534e-02
501 1.4385975359e+00 3.7678985988e-01 1.1594593184e+00 -2.4301611627e-01 -6.5906560464e-02 -4.9484115463e-01
502 8.8866337821e-01 2.0955180509e+00 -1.6728243630e-02 -8.3551383190e-02 -9.9995116765e-02 1.2485533613e-02
503 -6.6628741780e-01 1.6683330403e+00 1.8978668907e-01 1.8736805912e-01 4.9810035093e-02 -8.9583436095e-02
504 -1.3301516488e+00 6.7458333627e-01 -1.6073763126e+00 -9.2066233789e-02 -1.9538424925e-01 1.5159670355e-01
505 -1.9837080850e+00 -1.5113568003e+00 7.3978744029e-01 -5.9444490021e-02 4.1271976366e-02 3.9480099903e-01
506 -6.1012822320e-01 1.9809739797e-01 1.0535393846e-01 -4.0539929094e-02 -2.8425610132e-01 -2.7292387066e-01
507 -1.2165194949e+00 -1.4103652823e+00 2.8278324271e-01 5.7827187071e-02 8.0263106583e-03 -1.7413509894e-01
508 7.4396595497e-01 -3.0981934637e-01 -1.6024870201e+00 -6.5072691194e-02 -1.0607911216e-01 -3.5139591120e-01
509 3.5183690203e-01 -3.3964410591e-01 2.1782156466e-01 1.7111299471e-01 -2.5929539162e-01 1.3728504669e-01
510 1.4940531050e+00 1.4848166587e+00 1.8310771256e-01 -4.0255091908e-02 -1.6062122300e-02 2.5789409795e-01
511 -1.4684305494e+00 4.5586601349e-01 3.4218261234e-02 -2.1193836181e-01 -1.3449210011e-01 -8.7070852886e-02
512 -9.5724672927e-01 1.9352891360e-01 -8.6174212083e-01 1.9188737545e-02 4.1431214152e-01 2.5099389769e-01
513 4.7443551697e-01 -4.6189972266e-01 9.3801139831e-01 -4.1249218798e-02 2.3617296528e-02 5.5945672246e-02
514 -8.6147136654e-01 3.6585841031e-01 1.1405054592e+00 1.9315292672e-02 1.1075371147e-01 4.4030513628e-01
515 1.0636589308e+00 3.9353296062e-01 -2.0423740367e-02 -9.9151313384e-02 1.2230908400e-01 2.7398022033e-02
516 8.0839997234e-01 5.5514552509e-01 1.5981701362e-01 -2.7022224329e-01 8.9246512778e-02 2.2050446412e-01
517 -3.4465776129e-02 1.5585374376e-01 -2.2683602033e+00 2.6890397275e-01 1.7417748524e-01 -1.7419329873e-01
518 -1.5170002759e+00 7.8335043925e-01 1.7721237150e+00 4.2581227379e-02 8.8483600908e-02 7.9847045577e-02
519 6.7004558980e-01 -8.3682348845e-01 8.2909074664e-01 1.5888331502e-02 -3.3527362825e-01 1.1369355577e-01
520 1.5695424645e-01 3.6641416230e-01 -1.0884407354e+00 3.8628072973e-02 4.4882499253e-02 -1.0296240945e-02
521 -1.6036296016e+00 1.2573555533e+00 -1.0912568963e+00 2.0823320920e-01 -5.2386298378e-01 1.4962512138e-01
522 5.3647521575e-01 -1.7354208833e-01 6.1145050459e-02 -1.3623328449e-01 1.1948120365e-01 -9.2747408113e-02
523 1.1977405350e-01 -2.6922803932e+00 -5.5106508276e-01 2.0262327630e-01 2.8931887993e-01 1.9712879591e-01
524 -6.8734255159e-01 6.9035335381e-01 -8.9678644231e-01 2.2578948797e-01 1.4747606140e-01 -5.4043202130e-02
525 1.0649893288e+00 -8.8029522528e-01 4.6364823277e-02 4.7429793241e-01 -7.2580261963e-02 -6.1695576956e-02
526 6.1973832051e-02 5.4674436279e-01 1.0008558066e+00 9.9694829288e-02 8.9835229247e-02 3.0637278842e-01
527 -9.1057787276e-01 2.3199134940e-01 -4.4432656310e-01 2.2393957713e-01 1.4367944840e-02 -2.9025287781e-01
528 5.9989573015e-01 -8.6217674231e-01 -1.1330656965e+00 5.5293894387e-02 -4.8227783991e-02 -1.2080525170e-02
529 3.3927899751e-01 -9.6998307858e-01 7.4068038586e-01 1.5182694165e-01 -9.7421126032e-02 2.6111636677e-01
530 8.3073101758e-02 -8.3770597558e-01 9.6209065861e-01 -3.8675805600e-01 2.5535745667e-01 3.6770884782e-01
531 -1.2569129664e-02 1.2075826291e+00 -8.8309444212e-01 -1.7540958887e-02 6.4396702313e-02 -7.0525305918e-02
532 6.5069181345e-01 8.6747047518e-01 1.5511741132e+00 5.6521816089e-02 -1.4099563312e-01 1.8305580572e-01
533 8.7894251572e-01 -1.0702691408e+00 4.2061781021e-01 1.4522813620e-01 3.4721010285e-01 2.0070885678e-01
534 2.1463244342e-01 2.4177517571e-01 7.8467576838e-01 1.0547606495e-01 -1.2733175413e-01 4.9172510196e-01
535 -9.3393759252e-01 1.8514428022e-01 -4.0888040210e-01 -9.0659900288e-02 -5.5118512743e-02 -1.3103173577e-01
536 -1.1961549024e+00 -9.6481891098e-02 -3.5430556695e-01 -8.5871670631e-03 -1.4219739375e-01 2.4877603086e-01
537 5.7818679289e-01 2.6707734716e-01 -1.1486433332e+00 3.0458696107e-01 1.0981377681e-01 -8.9200916501e-02
538 8.6644196203e-01 -1.4666559391e-01 9.9693525946e-01 3.7445809185e-01 -1.1106359385e-01 -1.8564497994e-01
539 3.8800077340e-01 5.6058642565e-01 -2.5496257618e-01 -1.6261137278e-01 1.9542974857e-01 -3.2463983704e-01
540 1.0082886004e+00 -5.4790912151e-01 1.7032386348e+00 1.1361640669e-02 7.0602816381e-02 1.8938255003e-01
541 -3.0961990322e-01 2.4350336169e-01 1.1549168670e-01 -4.2126472621e-01 -2.7750185252e-02 1.6029475038e-01
542 2.9620913219e-01 1.3547379091e-01 -5.3519551717e-01 -4.8547686955e-01 -1.5808892986e-01 3.1273300810e-02
543 -4.1483366430e-01 7.7592633904e-01 -2.1843645912e-01 -1.8339056045e-01 -9.9005151431e-03 1.2931669244e-01
544 -1.5938377100e+00 -1.9646404575e+00 -1.8003571051e-01 -1.8711967975e-01 -5.5763232305e-02 -1.9845745801e-01
545 1.3111339320e-01 1.0019171883e-01 7.6347863795e-01 -1.6219712411e-01 1.1306549666e-01 -2.6069615137e-02
546 -2.1332256351e-01 1.4534501453e-01 3.8422875289e-01 -2.5575633784e-02 5.6324512070e-02 1.6538870136e-01
547 -6.1068305895e-03 1.7062418489e+00 7.3545359363e-02 8.6852647307e-02 2.2315704934e-01 -1.0512238563e-01
548 8.7276108738e-01 -6.4168316089e-01 -1.7583227508e+00 -9.6877460303e-02 -8.4935458005e-02 -3.1467100651e-02
549 -1.2338059079e+00 -2.7790472587e+00 -1.0313420899e+00 -2.7980749933e-01 1.4332594923e-01 1.5107635118e-01
550 -6.7166129375e-01 1.4569628005e-01 -1.9603984867e+00 -4.6286128676e-01 -2.9984782327e-01 -1.3814087736e-01
551 3.7701609560e-01 1.0201777763e-01 -6.8052397259e-01 -1.6388569406e-01 -3.0481348895e-01 -2.6429864069e-01
552 -5.2250957533e-01 3.4378014091e-01 3.9874109887e-01 2.6368655236e-01 2.0647654722e-01 -3.9868791199e-01
553 -3.3507013752e-01 1.4191906436e+00 -6.8624233409e-01 1.3195105450e-01 1.4134274185e-01 5.9052059205e-02
554 -1.5005442938e+00 2.5221243223e+00 -6.5071359072e-01 2.7639654675e-01 -9.6799177521e-02 -2.5655639132e-02
555 5.0756191866e-01 -1.5362876479e+00 -9.6048000689e-02 7.0409024988e-02 -9.8285288636e-02 -2.4384880707e-01
556 5.7992489246e-01 1.3913140951e-01 3.9706818097e-01 -2.5862731312e-01 -1.3380986049e-01 -2.5432038552e-01
557 -1.7333678419e+00 1.8547509004e-02 8.7038584063e-01 5.2348725664e-02 -6.8626281933e-03 -3.4458091206e-03
558 1.3627520045e+00 -1.7727662549e-01 -1.9908025811e+00 3.4018022554e-02 -2.0425145705e-01 1.3233009230e-02
559 -4.3811400700e-02 1.4020882827e+00 -1.7793747213e+00 1.4925633025e-01 1.0928826422e-01 -6.9646177730e-02
560 1.3817634202e+00 1.1101419425e+00 -9.9220281740e-01 -8.3293293075e-02 3.5090631086e-01 4.5229457897e-01
561 1.8580325868e-01 -6.9548117253e-01 -4.4121402820e-01 -4.3028969386e-01 3.2466954913e-01 1.1469348130e-01
562 1.7825135625e+00 -2.1479341173e+00 7.1498717031e-01 4.5208550266e-02 -1.4538120988e-01 7.3115086514e-02
563 -1.1027479666e+00 -7.0498290829e-01 -1.1834363946e+00 -6.3892511577e-02 6.7944371069e-02 1.0969912105e-01
564 -1.4416690782e-01 1.3833431869e+00 -1.9724972274e+00 -5.0394251692e-02 2.3032207140e-01 1.4942820943e-01
565 5.7751639534e-01 3.6658165277e-01 -4.0703698341e-01 -3.4599776431e-01 2.3351827199e-01 1.9019992114e-01
566 1.1165911093e+00 9.9265601227e-01 4.8342643436e-01 1.7308667321e-01 1.7499326359e-01 1.3831593510e-01
567 -2.2853690936e-01 1.0678059798e+00 3.1985482151e-01 -1.8126607337e-01 6.1098707824e-02 -2.9922332538e-01
568 -1.0997518375e+00 2.0910092862e+00 -2.3093962759e-02 1.2078210054e-02 3.8690613858e-02 -2.0975479493e-02
569 1.2739999991e+00 8.0153811971e-01 8.5083258041e-01 -2.1232609792e-01 -2.0613283184e-01 -5.6309255697e-01
570 1.4081761580e-01 -6.0228989705e-02 -5.3136211059e-02 -1.3598928420e-01 3.5147896863e-01 -4.5261747729e-02
571 -4.4076912908e-01 7.2892957306e-01 3.1883248303e-01 2.2746340957e-01 1.0447401130e-01 3.7456768392e-01
572 -1.8504568899e-02 -7.4498941686e-01 -1.7664145491e-02 1.2600528077e-01 -3.7998760918e-02 1.8300775851e-01
573 7.5040752474e-01 6.6096912778e-01 -1.3156194167e+00 -2.8435846388e-02 -4.0223129051e-01 -9.0092826149e-02
574 -9.4502795889e-01 -4.6288919544e-01 8.0148892620e-01 1.3649191845e-01 -4.4744931686e-02 -1.4136833347e-01
575 1.1032186912e+00 1.0002260068e+00 3.9404411201e-01 -9.1761101851e-02 -5.9323626303e-02 -6.8721273240e-02
576 4.8190161345e-01 1.3449308364e-01 2.6865301828e-01 1.1851621943e-01 -2.5440385835e-02 2.3146366160e-02
577 -7.4924111219e-01 -1.5317420018e+00 9.3073343428e-01 -2.5611104925e-01 2.8649024196e-01 1.7396803987e-01
578 -9.6343959674e-01 -3.7014870388e-01 -2.8680520833e+00 -3.2312857344e-01 1.6107159889e-01 2.7786125576e-01
579 8.3748870947e-02 -9.3878396230e-01 -5.3667029427e-01 2.3723016772e-02 -3.7998970551e-02 -1.3178602214e-01
580 -4.8455824063e-01 4.8457494250e-01 -4.9171482355e-02 -2.2794239955e-01 -1.3884388972e-01 -2.6026794750e-01
581 -1.3265480298e-01 2.7863035622e-01 3.5967585803e-01 -8.5766446294e-02 -1.2217277172e-01 1.9543445948e-01
582 8.7094584606e-01 -7.4229039622e-01 1.9281133519e+00 -2.0461937688e-01 -2.0799644987e-01 7.1687542396e-02
583 -5.1045733439e-01 -5.2516443551e-01 -1.4610105059e+00 2.1117666490e-01 -1.2416544626e-01 9.5176045394e-02
584 4.1983848538e-01 1.2469924873e+00 5.3977223583e-01 4.3321903599e-02 -1.4144310460e-01 3.0827496356e-02
585 3.7753394714e-02 -1.3759482950e+00 -1.0262477757e+00 -2.1484381391e-01 -1.3383552655e-01 3.2693547058e-01
586 -1.3580538611e+00 9.0161785492e-01 -1.3466796183e+00 2.4468304825e-01 1.8201923392e-02 -8.2470155289e-02
587 -3.2983741148e-01 -7.9924426581e-03 -1.0730227363e+00 -6.0767920415e-02 1.1130263604e-01 1.8948074331e-01
588 5.5629381871e-01 9.8600104230e-01 -8.7187489936e-01 2.2528800252e-01 -3.6389461567e-02 2.5905305924e-01
589 6.1594069644e-01 -5.8709126729e-01 -5.0768344494e-01 4.4170668412e-01 -1.6691401655e-01 -3.9621871879e-02
590 7.8605138964e-01 6.2921503030e-01 6.2210771563e-01 3.7881873090e-02 2.6599434900e-02 1.3637165083e-01
591 5.1887200063e-01 7.0193022026e-01 -1.3698281407e-01 7.0192196962e-02 -2.0758822231e-01 -2.1573838708e-01
592 -3.6842670429e-01 7.0792776414e-01 7.2220963205e-01 -1.5013213177e-01 9.7173477177e-02 -1.7206926881e-01
593 -1.0360841250e+00 -1.2404261535e+00 -1.3465978124e-01 2.2664501508e-01 1.1780562514e-01 -8.5609859387e-02
594 -5.1732376692e-01 6.5543037051e-01 -2.0628640204e+00 9.5838869382e-02 6.0234340710e-02 -6.8218054773e-03
595 1.4351371546e+00 -8.4990276964e-01 -8.4166933076e-01 4.2501348113e-01 -5.7360967078e-02 3.4177336449e-01
596 -1.4797381124e-01 -1.2665101395e+00 -7.6328920723e-02 -4.2520940503e-02 1.3762073410e-01 3.0389422921e-01
597 7.9539492147e-01 -8.6950888600e-01 -1.7492490092e+00 -6.2652979096e-02 -1.8290927989e-01 1.3772724126e-01
598 -1.1852497492e-01 -1.4027147058e+00 1.2874100622e+00 -7.4285674046e-02 5.1078034983e-03 1.7189359349e-01
599 -1.5235235344e+00 4.3803146959e-01 -8.8599216741e-02 4.8363609985e-01 5.8000286811e-02 -3.2105617583e-01
600 -1.6423441313e-01 -9.7799161466e-01 -5.4049025512e-01 -2.6033164751e-01 -6.8076986955e-02 -7.5034593751e-02
601 1.4217552167e-01 1.3279938644e+00 4.8115211292e-01 1.9060085259e-01 5.2502508842e-03 7.2291635911e-02
602 -4.2138096752e-01 3.2321238754e-01 -2.2200501054e-01 1.2592846375e-01 -3.2481006845e-01 5.1910989313e-02
603 7.1519112047e-01 -4.5024514947e-01 -1.4225163723e+00 6.0844109354e-02 -1.3662458842e-02 5.7892003581e-02
604 -1.8002008586e+00 1.1826724247e+00 3.8764612787e-01 -1.9150967373e-02 -4.6701632882e-01 1.3843797976e-01
605 1.4742464396e+00 6.6638014966e-01 1.2587951436e-01 4.4907600247e-01 5.9839810364e-02 -3.2414356395e-02
606 1.7431758103e-01 -9.8623381281e-01 -1.5030473270e+00 3.2143917323e-01 -2.5958434664e-01 3.3643281422e-01
607 1.1088665162e+00 5.3472681403e-02 3.9977755160e-01 1.9045867402e-01 1.8276642236e-01 1.7917532596e-01
608 5.7765970699e-01 2.1510961277e-01 8.8290546581e-02 -9.5285193457e-02 1.1010117255e-01 2.6999637902e-01
609 3.7084725377e-01 9.2155518115e-01 2.8053659891e-01 -1.2953914101e-01 -1.8263171283e-01 2.8316575622e-01
610 1.1384589137e+00 1.1334573422e+00 -8.1388630049e-01 -2.4283971367e-01 -2.9024582532e-01 3.0737434020e-01
611 -6.8027289833e-01 3.8702007453e-01 1.4731631218e+00 1.6130572945e-01 -1.1679527321e-01 4.2662671477e-02
612 2.5511371518e+00 -1.6943037265e-01 1.0676764402e+00 3.0710579983e-01 -4.8563803829e-01 -8.3181311707e-02
613 -2.0081903113e+00 -1.0923142257e+00 -2.8409442005e+00 1.3702816049e-01 -1.4243141981e-01 3.1248296195e-02
614 4.5501091626e-01 1.2132266502e+00 -1.2518008159e+00 -7.7784996344e-02 1.1525165520e-04 6.1832820819e-02
615 2.4725621503e+00 6.5753836730e-02 4.0257519078e-01 2.1445873973e-01 2.3571058424e-01 5.6655268928e-02
616 -1.7337418429e+00 1.1433324890e+00 1.9083176184e+00 1.6315560432e-01 1.6855340871e-01 3.9702254132e-01
617 -9.0601154259e-01 3.1623657998e-01 -4.9616067050e-01 -6.2976346119e-02 3.1476389359e-02 -3.3022031950e-01
618 1.3266029054e-01 2.0092567711e+00 1.7697158931e-01 1.3089783732e-01 3.0844852491e-01 9.3114770505e-03
619 -2.5794811156e-01 8.1371701796e-02 2.0681360568e-01 1.9219154253e-01 3.1142637379e-01 9.7745443625e-03
620 1.1283834059e+00 -1.4710678717e+00 8.9715142530e-01 2.6372443020e-01 1.5788794981e-01 5.1478838245e-02
621 -1.1998750615e+00 1.4753618519e+00 -5.5168841737e-01 4.4224234735e-01 -1.1728789923e-01 2.2560090276e-01
622 -1.6388884638e-01 -1.5130503920e+00 5.1903038005e-01 1.1846367736e-01 -1.5045702260e-01 1.2703340506e-01
623 -9.9572470293e-01 2.0486428147e+00 1.3951835199e+00 1.0288155396e-01 -1.4313038754e-01 8.5358618858e-03
624 -5.6564037909e-01 -4.5160998112e-01 -4.8187571534e-01 -1.9019943164e-01 -1.3547415229e-02 -1.1192818021e-01
625 -3.3114296542e-01 -1.3675197924e+00 2.1314492323e+00 -2.3183709241e-01 1.0212565369e-01 -1.2619635955e-01
626 -4.5938913061e-01 -4.8103855605e-01 6.0115033304e-01 -9.5634701966e-03 4.8561765065e-04 2.5872047413e-01
627 6.6000673710e-01 -2.8843937396e-01 -9.5931478182e-01 -3.7501834813e-01 -1.3990113439e-01 -9.6123733430e-03
628 1.5550590552e+00 1.3436291947e-02 -8.7656690010e-01 1.5179247609e-01 1.1431471995e-02 -2.1012931964e-02
629 -1.5123956593e+00 -2.1749205907e-02 -1.5964387878e+00 -1.6543581952e-01 -5.0429130582e-01 1.4851923860e-01
630 -1.5097698871e+00 8.2768550844e-01 -3.0120467774e-01 3.3072200273e-01 2.9675226485e-01 -2.5626985875e-01
631 -2.3004899414e+00 -1.5219670015e+00 -5.2727850311e-01 1.5811616234e-02 -2.3121048874e-01 5.5305258450e-02
632 -1.2799947663e+00 4.4011084079e-01 -6.2509441678e-01 1.2812526973e-01 9.3520559692e-02 -4.5136657212e-03
633 -5.5736209853e-01 -1.6274153989e+00 2.4886037075e-01 -2.4074827391e-01 3.7638051550e-02 3.3950992007e-02
634 -9.2256773925e-01 6.8137471691e-01 1.6198391704e+00 1.2585496626e-01 2.4351808291e-01 4.0025529451e-01
635 1.1445390435e+00 -9.3023367730e-02 -3.6676955388e-01 -1.3522602848e-01 5.3631165664e-02 9.8151434382e-02
636 5.5709516024e-02 6.6340343950e-01 9.8031164520e-01 3.3048872677e-01 -5.1819782198e-02 3.3793664130e-02
637 4.4972287268e-01 -1.7951163360e+00 -2.8823770573e-01 -5.9272275391e-01 1.4536465173e-01 -1.0563417488e-01
638 9.3888592992e-03 -4.9332558636e-01 -1.6597898948e+00 -3.7957933016e-02 6.0768443350e-02 2.5393874729e-01
639 1.0051247084e-01 -1.4434658727e-03 4.6782863218e-01 1.2250581940e-01 3.5539533921e-01 -3.4830332353e-01
640 -2.9049018356e-01 1.9522578818e-01 -1.0077841658e+00 2.5102588655e-01 9.9062273045e-02 2.0976905666e-01
641 1.0986591318e+00 5.8566886496e-01 6.9744228791e-01 -6.5999217955e-02 2.8661813607e-01 1.8904284656e-01
642 1.4548465334e+00 6.5707510674e-01 -1.8928187261e-01 8.7335406555e-02 -5.6444504676e-02 -1.0908267082e-01
643 -9.7122150761e-01 -4.3377339221e-01 -1.0977408528e+00 -1.0414455849e-01 7.2860080332e-02 -1.4058973490e-01
644 6.3151079154e-01 -1.1237637970e+00 1.1558525424e-02 3.8632375023e-02 1.8499516372e-01 3.6512352830e-01
645 1.0075110991e+00 1.4948859665e-02 9.1385637388e-03 1.2575506561e-01 -3.1023301092e-02 1.0210496607e-01
646 5.9516357616e-01 1.6516381328e+00 1.2324766883e+00 -1.1714074160e-01 -1.5938014806e-01 3.5233975146e-01
647 2.4904589807e+00 3.6720021373e-01 -1.6851545365e+00 3.1916771355e-01 -1.1121047343e-03 -5.3971981350e-02
648 6.7024231385e-01 6.3355764213e-01 1.5677579718e+00 -3.0849482839e-02 -1.3800847849e-01 1.1075328728e-01
649 -1.1396706762e+00 -7.5098076988e-01 1.3089151352e+00 1.5990657977e-01 -2.1049021575e-01 1.2971795969e-01
650 8.3017210830e-01 1.7729644527e-01 -1.7459949065e-01 -4.7654004331e-04 -2.8978797383e-01 -8.1702489319e-02
651 1.0242104094e+00 6.1516818773e-01 -7.3074942199e-01 7.0484911029e-02 4.1854777660e-01 -1.2090371246e-02
652 -5.6783665079e-01 4.5030928813e-01 -7.7312136578e-02 -2.2893113656e-01 -3.0172409815e-01 1.5181184613e-02
653 1.1114078120e-01 -3.1232316948e-01 3.3922660849e+00 -1.5895947071e-01 -3.7138129641e-01 -4.0257568582e-01
654 -4.9406529578e-01 -1.3682021404e+00 6.7030185411e-01 1.0725361752e-02 2.7755292782e-01 -2.8971084493e-02
655 5.7933833568e-01 1.0869521405e+00 -1.1629582555e+00 1.4410957904e-01 6.7310383957e-02 -1.9000117518e-02
656 -6.7701292071e-01 -6.6769089960e-01 -1.3818559058e+00 -1.2597165297e-01 3.3605431548e-01 1.2338607970e-01
657 -2.2640434665e+00 -4.2106674954e-02 2.3488986922e-01 1.2627242405e-03 7.5784485427e-02 -2.7835793377e-01
658 -2.1826583437e+00 1.3128415439e-01 -3.5599764810e-01 -2.5012480040e-02 -1.2125492502e-01 -3.0385534566e-02
659 7.9701964875e-01 -1.8373458906e-01 -6.4876993430e-01 -3.5427862592e-01 4.6043548150e-01 -1.9684353606e-01
660 1.4872294089e-01 3.7823549077e-02 1.3272218815e+00 -1.8544411635e-01 -9.8625322323e-02 -1.5290023995e-01
661 -1.1501845014e+00 -9.8422489361e-01 1.2838165985e+00 -1.0109591447e-01 -2.8753527276e-01 2.0502475176e-01
662 -1.0237350119e+00 8.4415459094e-01 -1.0614769569e+00 -1.8944781155e-01 -1.1152094418e-01 -1.4361963396e-02
663 1.1540109417e+00 -6.6907211429e-01 -4.4600885999e-01 3.2335025637e-02 -1.8381485331e-01 -2.1030816667e-01
664 1.6516382883e+00 1.8641833493e-01 -1.0937312446e+00 1.1455200260e-01 3.1836881322e-01 -1.4048525225e-01
665 9.4396969752e-01 -4.5377225513e-01 1.2895050585e+00 4.0041590049e-01 9.8684621610e-03 3.2243855694e-01
666 -1.2069666707e+00 -8.3851130291e-01 1.2345007349e+00 2.0214096958e-02 -7.2069977638e-03 1.2220825063e-02
667 1.6722190636e+00 1.0456217483e+00 -5.2904192152e-01 -2.6130544413e-02 -1.3944413605e-01 5.8028008042e-03
668 1.4607001658e-01 1.2115407265e+00 -8.9617233603e-01 -3.5850481898e-02 1.5319781000e-01 -1.6732409510e-01
669 8.7840612481e-02 -1.4575364438e+00 -1.6415403933e-02 1.5198722423e-01 3.2092626346e-01 -2.2122472132e-01
670 2.6988358600e+00 -6.1086392488e-01 9.1018427101e-01 -3.3967294819e-01 3.6660509610e-01 -4.3369075884e-01
671 1.0037648610e+00 6.7735764383e-01 -1.7565870101e+00 4.6510534889e-02 7.7627623094e-01 -8.2061204570e-01
672 -2.2269535896e-01 -1.0344477928e+00 -8.7279972062e-01 -4.5702741507e-02 -1.5457658056e-01 -1.8577719385e-01
673 -6.8902323687e-01 -2.9520055702e-01 7.8923509741e-01 -2.3897159151e-02 7.9664139545e-02 7.6677510372e-02
674 -1.0783599913e+00 6.3216946058e-01 1.2660517883e+00 -3.6886492125e-02 -3.8537822364e-03 -9.9207143531e-02
675 3.8113547390e-01 -1.6465814845e+00 4.6164241255e-01 1.0734499407e-01 1.3123671654e-01 2.5081525761e-01
676 5.0854609773e-01 -1.2571751241e-02 8.0266569152e-01 -7.9013514047e-02 1.1845719356e-01 -1.6005352458e-01
677 8.8085607877e-01 -1.6188495019e-01 9.1611661695e-01 -8.9274469616e-02 1.7510305057e-01 2.9084216281e-01
678 1.1040167759e-01 1.2303904706e+00 4.5166674848e-01 4.2260563364e-01 -3.3819867588e-02 2.3096829250e-02
679 -4.6786273649e-01 2.3050230443e-01 2.0066479670e-01 -4.0509124840e-03 -2.4549002986e-02 -3.1894958656e-02
680 1.7355434689e+00 2.3567844257e-01 1.0295413157e+00 -1.6347317572e-01 7.2261526559e-02 1.5170296254e-01
681 -5.9183895695e-01 -1.1662121158e+00 -9.0386683086e-02 9.5060951041e-03 -6.2889718199e-02 -2.8512961528e-02
682 1.6904858370e+00 -1.0588688886e+00 5.3169642230e-01 -3.4071164717e-01 -7.6640808063e-02 5.1820541090e-02
683 -9.5551299147e-01 7.4623681628e-01 9.5664391537e-01 8.9167683449e-02 5.6656720256e-02 1.8072014706e-02
684 5.4022635882e-01 1.7577604427e+00 2.5777295983e+00 1.3749474458e-01 -1.1783766014e-01 3.8252977537e-02
685 -2.4705545791e+00 5.5032747058e-01 -3.6157469713e-02 -5.6072826399e-01 2.5500463874e-01 -4.0499677242e-01
686 1.6444932890e+00 9.3446061163e-01 -4.4632568212e-01 5.0530506128e-02 -1.1675199328e-01 3.0662212498e-01
687 1.3127947091e+00 -6.6159868839e-02 4.2904798393e-01 -5.7089521543e-02 3.7289442211e-01 1.2329642996e-01
688 8.5665696362e-01 1.0996505673e+00 1.3455218379e-01 -2.6225928893e-01 -8.9609940991e-02 1.3168378187e-01
689 2.1115520041e-01 1.7228879110e-01 9.1928970314e-01 1.8647050824e-01 8.3775895176e-02 4.7477824932e-02
690 1.0588080028e+00 1.4855279602e+00 4.2128314841e-01 -1.6773903740e-01 3.0615230290e-01 2.7866728918e-01
691 -2.1330346668e+00 -8.9512102742e-01 1.5786485031e+00 2.3279389827e-02 -1.6453807179e-01 1.3200084840e-01
692 5.5642202636e-01 -1.5196783968e+00 -7.3738613326e-01 -1.0640722130e-01 -2.8926529518e-01 1.1699212848e-01
693 6.7413142043e-01 1.1731871417e+00 -1.0706152367e+00 1.0094458325e-01 1.5997235953e-01 -2.5115519935e-02
694 -1.7758991538e-01 3.9858926964e-01 2.2997745043e-02 1.6056532062e-02 2.8492889858e-02 -3.8392224453e-03
695 1.8926275805e-01 1.6296323247e+00 -2.6838003283e-01 -5.9462665426e-02 -7.0549555716e-02 2.9384183352e-01
696 -5.3656224484e-02 -1.3017811649e-01 3.8485241231e-01 7.0958228064e-02 -2.1287833908e-02 -2.2479909418e-02
697 -3.8301670545e+00 -4.1493886598e-01 -9.4482987670e-02 -6.7872334412e-02 -1.6707112687e-01 -1.2287095422e-02
698 -2.1859196695e+00 1.4278068680e+00 -9.2311476055e-01 -2.5551792268e-01 -2.4973105308e-01 -2.5400134899e-01
699 1.3623925087e+00 -1.6780969093e+00 -1.3852450730e+00 -9.5760880596e-02 1.6416140339e-01 -5.9872043260e-02
700 -2.4599463488e-01 -1.6257620177e+00 1.8730162729e+00 2.4195843562e-01 -1.0016097641e-01 1.3900577706e-01
701 1.0276563186e+00 -4.2321115163e-01 4.1652505910e-01 4.4081310821e-02 -9.3773480062e-02 -1.8395861384e-01
702 1.0644123526e+00 9.2164536358e-02 9.3953156719e-01 8.2033153887e-02 -3.8021901943e-02 -1.7423164070e-01
703 -8.9428697225e-01 6.2173313837e-01 1.6983220570e+00 2.2695775077e-01 5.6209602802e-01 2.4010001040e-01
704 -3.3956878218e-01 -2.7681366318e-01 -8.9216798267e-01 2.2680241917e-01 3.9121588122e-01 5.8710423901e-02
705 -2.5641516376e-01 -6.8674817977e-01 -1.7389264781e+00 3.7995961989e-02 -1.4186395233e-02 4.5934301712e-02
706 2.7234600938e-01 -1.0297204551e+00 2.2954562657e+00 -3.7947095705e-01 2.9111452655e-01 -3.7044779970e-01
707 4.6391701249e-01 8.8220192700e-01 -5.6023170321e-01 2.6154884509e-01 -2.8957578310e-01 1.9405201921e-01
708 -7.8551925570e-01 9.8825488609e-01 9.7230220249e-01 6.3101382529e-02 6.5184383259e-02 -2.3822624257e-01
709 3.1515746599e-01 -7.8452701651e-01 3.6162860364e-01 6.1954287465e-02 3.2448681071e-02 -8.1289768334e-02
710 -1.3149307068e+00 1.1254822009e-01 1.8535596842e-01 -2.7068286684e-02 -3.5854472494e-01 -1.5624971110e-01
711 -2.0581027026e-01 -5.7109486734e-02 1.2222531676e+00 -6.2805520601e-02 3.5504759077e-03 2.2037394673e-02
712 2.9928014244e-01 4.5452154291e-01 1.1009271950e+00 1.4966142652e-01 -1.5477315321e-01 -3.3818513498e-01
713 1.2989792199e+00 -1.5399739050e+00 6.6165041886e-01 -2.6942284917e-01 -3.5380038289e-02 -1.0020080017e-01
714 9.3286747527e-01 2.0435001250e+00 4.8507918449e-01 -1.5657913859e-01 1.8840815593e-02 -6.4248473571e-02
715 4.1185140215e-02 5.0839249011e-01 -9.0938018995e-01 1.7941385378e-01 -4.8873317877e-02 1.7690775886e-01
716 1.8868225655e-01 7.9773708383e-01 2.6848110689e+00 -7.5478514069e-02 -6.4655561125e-02 -3.6324987802e-02
717 -3.6522149109e-02 -1.7840173762e-01 6.9260398709e-01 4.1881536602e-01 5.0755466242e-02 7.7408676644e-02
718 4.4977542432e-01 -1.1533605067e+00 2.8080046578e-01 -2.2237947823e-01 -9.6410558869e-03 4.8658506627e-01
719 -3.4740057788e-01 -9.2476957000e-01 -1.9642939600e-01 -2.9850540025e-01 -8.3907790747e-02 -1.4913446432e-01
720 -5.7977004207e-01 -1.7795765869e-01 6.8871509849e-01 9.7079169421e-02 -5.5404468155e-01 1.6430295997e-01
721 -2.3878638111e-01 -8.1139461329e-01 -7.8106137537e-01 -1.4895300837e-01 1.7420793548e-01 -1.0193309425e-01
722 -1.1512010290e+00 -1.5962638174e-01 1.3539235576e-01 2.9290852698e-01 1.6192183892e-01 -5.7674062872e-02
723 8.1959970899e-01 -6.3548774326e-01 5.6671823519e-01 -9.6896743353e-03 1.6402411219e-01 2.4559764172e-01
724 1.3949751364e+00 5.3865309472e-01 1.0222014338e+00 1.0976049799e-01 1.5530713401e-01 -1.2552542794e-01
725 -2.2452095901e+00 -4.1491249388e-01 -5.8542058762e-01 -2.4270621056e-01 -4.0089003800e-01 2.1779552710e-01
726 7.0020284916e-01 8.1485333900e-01 -9.6781095161e-01 -4.3026465977e-02 5.2444354350e-02 7.4805814250e-02
727 9.9182278012e-01 6.3360775087e-01 -1.0711417618e+00 -1.2692996462e-01 -1.2281099182e-01 -1.6457845411e-01
728 2.4453825278e-02 -1.7717772463e-01 -2.2362896445e-02 1.0934732038e-01 -3.4065088648e-01 2.8802252798e-01
729 -1.2052783929e-01 8.2984830670e-01 -1.2617134074e+00 1.4006281552e-01 7.8850948737e-02 2.5182326522e-01
730 -4.5762814669e-01 8.1397686748e-01 4.0555395050e-01 -8.1787898918e-02 1.7440422462e-01 3.4254849081e-02
731 -1.8742376139e+00 8.5024089964e-01 -9.0772141889e-01 5.8064804622e-02 -5.2020644548e-01 -9.0499462717e-02
732 1.3359898194e+00 7.1072972859e-01 2.0657391501e+00 -3.8578127105e-02 -2.6114062115e-01 7.1057349072e-02
733 -1.0462907663e+00 -1.0870662848e+00 -2.2405046281e-01 1.2329226954e-01 -2.4991475727e-01 6.8049745545e-02
734 -2.1836513294e-01 1.7901582076e+00 -1.1344400561e+00 -2.6966615794e-02 -2.8835703231e-01 -1.9120308391e-01
735 -2.3501533778e-01 -5.2660045380e-01 -2.8527537412e-01 -1.8769246801e-02 -9.9271803049e-03 -9.0701231630e-02
736 2.1160006126e-01 1.3094761423e+00 5.8666390918e-01 9.5123835607e-03 -3.8329817437e-02 4.8216482718e-01
737 -7.7820263138e-01 -2.1166207531e-01 1.4555421087e+00 2.6323726905e-01 -1.5021523572e-01 1.4949722926e-01
738 -1.9589515366e+00 -7.0937465692e-01 -1.3794677133e+00 1.6304867511e-02 1.0843576443e-01 4.7997813283e-01
739 3.2882991874e+00 -2.7343925929e-01 7.0048480397e-01 -1.4771130058e-01 -7.4672171506e-01 3.0713345262e-02
740 -7.2161536730e-02 1.8374065080e+00 1.7636009060e-01 -6.6622925554e-02 -1.0773109203e-03 6.6296296723e-02
741 6.9618248535e-01 -1.2329166537e+00 8.2448225448e-01 -2.6136728424e-01 1.7873785109e-01 1.7245942097e-01
742 4.6428673034e-01 2.1619994701e-02 -6.5238102076e-02 2.9127535201e-01 1.4353229896e-01 -7.6868725484e-02
743 -1.4276853400e+00 -8.5430423098e-01 -8.9146851793e-01 -3.6200879559e-01 1.2656342915e-01 -8.1409538019e-02
744 5.4674499727e-01 -1.5717773946e-01 -3.9075366748e-01 -3.5540415322e-01 2.3302641033e-01 1.6682227527e-02
745 1.1168607828e-01 1.0300980249e+00 5.3730471255e-01 -2.4571599167e-02 6.2387406333e-02 -4.5443273225e-02
746 5.6552391977e-01 1.2135979480e-01 5.9727072759e-01 4.2221117249e-01 5.0041947366e-02 -1.2575457678e-02
747 3.4214690155e-01 -3.2615520023e-01 -1.3462952123e+00 2.2837096321e-01 -1.1928187420e-01 6.4992536198e-02
748 -3.4469613161e-01 1.7327034379e-01 -1.2137921345e+00 8.5735494876e-02 -5.3162289907e-02 8.8742500082e-03
749 -7.5894021955e-02 2.4222162162e+00 -1.2336560492e+00 9.1674922405e-02 1.6809026033e-01 -5.2037114957e-02
750 8.1455304012e-01 -5.8175471579e-01 1.2261135991e-01 -2.0704879492e-01 -2.6437446421e-01 7.0063731223e-02
751 3.0521872921e-01 3.9486229098e-01 -7.9254572815e-01 8.7924485420e-02 3.3251992614e-02 -9.3498615607e-02
752 7.8124334021e-01 7.8625900975e-01 3.0305018522e-01 7.6145013377e-02 -2.8248556400e-01 -1.9795827294e-01
753 9.0690023230e-01 3.4040793168e-01 -8.5807390197e-01 -1.3742279189e-01 -2.1452719432e-01 3.3045090378e-01
754 -8.9176898567e-01 -2.9096818898e-02 8.1450133686e-01 -2.2779840771e-02 2.7129881879e-02 5.3342451610e-03
755 1.5885492688e+00 -5.9032605070e-01 9.2540348741e-02 -2.4123729840e-01 -6.8453996224e-01 1.7744438089e-01
756 9.9856741226e-01 4.0757298020e-01 -2.0194249856e-01 2.9685607370e-01 2.4024026453e-01 -7.9776924002e-02
757 -3.8124879102e-01 5.8622343766e-01 -6.0358803657e-01 -1.2289504017e-01 -1.4745508711e-01 1.0332107920e-01
758 -3.3213532415e-01 3.8778774261e-01 4.2387728665e-01 -9.7232957243e-02 -5.9448769544e-02 7.6028727808e-02
759 8.9097275018e-01 -9.0228481515e-01 5.0666631470e-01 6.8010430541e-03 -9.2597803599e-03 4.5280141694e-03
760 2.0358370718e+00 1.5123741562e-01 1.2855034141e-01 4.1288384887e-02 -1.1158376071e-01 -1.5224334578e-01
761 1.0589200921e-01 7.6580160453e-01 -2.0061796257e+00 -4.2375934761e-02 1.5146653506e-01 -1.2389407443e-01
762 1.5194097192e-01 -2.9351929078e+00 3.2718698982e+00 -1.1544292867e-02 1.6783955418e-01 1.8160381684e-01
763 -1.0568782516e+00 5.4939423277e-02 1.0431707374e+00 8.0464454537e-02 -1.4368047741e-01 -1.9293580611e-01
764 -8.3107491984e-01 -1.1040831888e-01 8.1063489837e-01 -3.1373390286e-01 -1.2673837145e-01 9.0551219927e-02
765 -1.3222436733e+00 -1.1588250547e+00 4.3598936400e-01 9.5831439107e-02 -1.3188362996e-01 2.2289333759e-01
766 -1.3440384382e+00 7.4702624750e-01 -3.7159006826e-02 6.1495749757e-02 -5.7460880292e-02 2.2807621034e-01
767 3.8995461553e-01 -2.5320738372e-01 1.0037417559e+00 1.9562200593e-01 -1.1652344638e-02 -4.8770111779e-02
768 1.5534055535e+00 1.1454672937e+00 6.8980325510e-01 -8.0052334082e-02 1.2673705264e-01 -1.5916321555e-01
769 4.6661051320e-01 -1.9877245190e+00 4.7581065756e-01 -2.0460844035e-02 4.0820372801e-02 -4.8942981858e-02
770 -6.7348420910e-01 -8.9096331055e-01 5.0960231078e-01 3.5138807315e-01 -1.0072383721e-02 -6.2711883729e-03
771 3.2163595950e-01 -8.1133916918e-01 -1.2556891851e-01 -1.2933076398e-01 1.4053803326e-01 1.4529249019e-01
772 -1.9242365518e+00 -3.3815775036e-01 8.5889119422e-01 -1.4521280585e-01 -1.3504501111e-01 -3.8809385763e-01
773 -1.0996846167e+00 1.6976800950e-02 7.4500676329e-01 6.8686188036e-02 2.8631568011e-01 4.1012504017e-02
774 -1.6321428405e+00 9.3097353250e-01 -4.5880902492e-01 3.0932690079e-01 5.6785085284e-02 2.4484703680e-01
775 8.9144424914e-01 1.0946288980e-01 -1.0939571262e-01 3.0082771254e-01 -1.9614929233e-01 -1.0392280658e-01
776 1.6364889672e+00 -1.7089441844e+00 1.0837236316e+00 3.7573086172e-01 7.3648647721e-02 -3.5053519280e-01
777 -5.2232990504e-01 -1.5344293794e-01 1.4825263378e+00 -2.1031446847e-02 1.9978106460e-01 -6.4341707561e-03
778 -1.1883484650e+00 -5.2737081930e-01 -1.9654264897e+00 2.9126853500e-01 -2.9007772407e-01 2.6287884232e-01
779 2.9974065646e+00 1.5919762391e+00 -1.1121221638e+00 -9.1786191223e-02 2.9692916673e-01 1.6810659851e-01
780 -2.2508718965e-02 2.2845832802e-01 -5.9003217050e-01 -4.6031692860e-01 1.6084758940e-02 -1.0336956832e-01
781 -4.5714749341e-01 -1.8520413550e+00 -8.7252214271e-01 -3.1391400575e-01 6.0529281684e-01 1.4675478704e-01
782 1.0287990450e+00 9.9656016534e-01 2.2604074408e-01 2.1830999231e-01 -3.2079180089e-01 1.4482967209e-02
783 8.7709481294e-02 -5.6901187560e-01 -7.3629558991e-01 -2.4513802794e-01 -1.5677228493e-01 -9.8971929149e-02
784 4.8236365111e-01 -4.3092157803e-01 1.6054259666e+00 -2.7612230472e-01 -6.6734307279e-02 -8.4825914201e-02
785 2.1906990786e-01 -4.2300316028e-01 -1.0851954856e+00 -3.5961650661e-01 3.1359000449e-01 1.1309915059e-01
786 5.1995906158e-01 1.2704830908e+00 -7.6414433393e-01 1.6459508565e-01 -2.4176560400e-01 1.5884484377e-01
787 4.2172947149e-01 6.7318250138e-01 6.1105721905e-01 5.9990596334e-02 6.2333041325e-02 -2.8905929161e-02
788 1.2645250305e+00 -1.7918112747e+00 -3.0927042451e+00 1.7250920747e-01 -6.0116643656e-02 -9.6195520599e-02
789 7.7768496879e-01 -1.7835800786e-01 -3.8532398891e-01 -1.0699571888e-01 -1.0262647712e-01 1.6027396953e-01
790 -1.8548112980e-01 -1.2138418890e+00 -5.3607048657e-01 -3.3731588784e-02 -5.3433091575e-02 1.4210299598e-01
791 -2.3926049954e-01 -3.7142888386e-01 6.6885890898e-02 -3.1379102897e-01 4.9677545469e-01 1.7710499598e-01
792 1.0660060924e+00 -3.0714178313e-01 -4.1564168050e-01 4.1447378280e-01 3.4602519083e-02 1.0401215654e-01
793 1.0123021227e+00 9.0442662950e-01 -6.2900870558e-01 -1.1075164620e-01 2.9177456048e-01 1.1855060988e-01
794 7.6780856894e-01 1.7635645657e+00 2.7759612106e-01 1.9931620458e-02 -4.5632045034e-02 2.7520713698e-01
795 7.9357822463e-01 1.3125240016e+00 9.6247673626e-01 -9.0978703484e-02 5.2966777230e-02 1.2969361482e-01
796 -1.0551199547e+00 2.0601675996e-01 6.4889621325e-01 -8.8584692947e-02 4.7252722602e-02 -1.1318348536e-02
797 -3.3364558912e-01 -1.8834782716e-01 -6.3091264398e-01 -1.3796510774e-02 -1.8572531981e-01 7.0563305506e-01
798 -2.1090331334e-01 -1.4727998633e+00 -2.3276585931e-01 -1.4313126652e-02 -1.9204644125e-02 1.5992660595e-02
799 1.2881617942e+00 -6.0254302872e-01 2.0218921153e-01 -7.5816043080e-03 9.3919283712e-02 -7.0630019088e-02
800 -7.9961737942e-01 2.9652493321e-01 5.0374844119e-01 -1.4068815391e-01 -1.5937341232e-01 3.7281864135e-01
801 -1.1590992750e+00 6.7561843217e-01 1.3120887672e-02 9.9490513063e-02 1.1179763971e-01 1.3901028713e-01
802 -4.0369566021e-01 6.4094743663e-01 -1.5286085601e+00 -2.0833067297e-02 1.5556502637e-01 2.4487294568e-01
803 3.1164297831e-01 -1.0493060097e+00 1.2729822169e+00 -1.1119278493e-01 -1.0176489175e-01 -4.6758264422e-02
804 1.6280326784e+00 -2.8844954874e+00 1.9043327922e+00 -2.3065625799e-02 -1.9518768143e-01 1.3915297698e-01
805 4.8404298295e-01 -2.8632262767e-01 1.0431678459e+00 2.7288100368e-01 4.0827798531e-01 -3.3271293934e-02
806 5.2222994129e-01 1.1457899164e+00 3.0136108910e-01 -7.3948350374e-02 9.3797341248e-02 3.9018106384e-01
807 -1.2770859494e-01 5.5465354456e-01 1.1870474872e+00 8.1315859017e-02 -3.9786511551e-01 -3.5782832494e-01
808 2.7316081769e-01 2.1659752049e+00 5.7932302380e-01 3.7070065764e-03 2.1236315558e-02 -4.0179019092e-02
809 2.3549416925e-02 1.8212739670e-01 2.0567138333e-02 4.9333171372e-01 2.7411515597e-01 -2.9937693939e-02
810 2.3337171752e+00 -1.1618304960e+00 -7.7565657570e-02 3.2343594021e-02 1.2936618171e-01 7.1055603529e-02
811 1.6345699925e+00 -2.8693926865e-01 4.7042516181e-01 5.1639324340e-02 2.4760933249e-01 2.3460093968e-01
812 6.7610052859e-01 -1.6212401366e-01 2.4712156240e+00 -1.7166295222e-01 -4.3898003012e-01 -1.9167666040e-01
813 8.4944625220e-01 -1.1177629960e+00 1.4225561914e+00 2.9137059450e-01 2.4438591645e-03 8.0973581968e-02
814 4.4575450637e-01 -5.9768773004e-01 7.0016532193e-01 1.3077482593e-01 1.1277318882e-01 2.6300232957e-01
815 1.2393222708e+00 6.9467022926e-01 -6.4456586805e-01 4.0799563322e-02 1.7289111295e-01 -2.6762996947e-01
816 2.3795545440e-01 -4.1255854308e-01 5.9459340341e-01 3.7546963894e-02 1.8140272864e-01 -1.0925142182e-01
817 -8.4355278887e-03 4.9650895976e-01 -4.4726993199e-01 -1.0635200522e-01 2.1957866587e-01 -7.3611515521e-02
818 7.0110702384e-01 7.7637075910e-01 1.0342012392e+00 1.2239953025e-01 1.7070740363e-01 -1.7618676641e-01
819 -1.8523050446e-01 5.2328029639e-01 -7.6269757589e-01 5.3419393204e-02 -1.5574533100e-01 2.3189490019e-01
820 6.0413248335e-01 -1.7618301508e+00 -6.7913951672e-01 4.5735414098e-01 -1.0451204220e-02 -1.5450202675e-01
821 -9.2421076869e-01 2.4750015034e-02 -1.4474629253e+00 -1.3273869351e-04 -9.0853209389e-02 9.7568279326e-03
822 1.4038401533e+00 1.9312645592e+00 -2.8243785559e-01 5.9338796694e-02 2.2815616504e-01 -1.1546237843e-01
823 4.6493444500e-01 -1.3785050330e+00 4.3467481698e-01 -1.4223980303e-01 4.5164080324e-02 1.0817207547e-01
824 1.7323271487e+00 5.7324878354e-01 2.0323851441e+00 2.1735226662e-02 -1.2169067894e-02 5.7010778412e-03
825 5.4395767384e-01 -1.8854411096e+00 -8.8380895917e-01 2.1421361229e-01 -1.4168740230e-01 -1.7534601217e-01
826 -1.2348545489e-01 6.0642139607e-03 -9.5681215967e-01 -2.6014549949e-01 -4.2380533566e-01 -1.0098221398e-01
827 1.1326224529e+00 5.3278094008e-01 7.2806685858e-01 -4.5537430260e-01 -3.3463051884e-01 -2.2870753899e-01
828 -1.5625472866e-01 -1.3077715405e+00 4.9948179673e-01 3.8974145611e-01 1.8876382050e-01 -7.0043242557e-03
829 4.0406342913e-01 -1.6907541749e+00 -9.4351063036e-01 -2.0196939092e-01 6.1200629439e-01 5.1630271936e-03
830 -1.5715138336e+00 -1.4894663385e+00 -1.3445107412e-01 -1.0320129264e-01 9.8877864179e-02 2.1883029445e-01
831 -5.3510323129e-01 1.8918128642e+00 -1.2303255741e+00 1.5435291648e-01 -3.9516408153e-02 5.6433202941e-02
832 5.6958322071e-01 -8.5358368042e-01 -1.9498395477e-01 3.9659287856e-02 6.1084228373e-02 9.7556100723e-02
833 -2.5517583945e+00 -2.8252911975e-01 -7.9460269290e-01 3.4221923412e-01 3.8170731404e-01 -3.2859703465e-01
834 8.4062088151e-01 -1.5512694003e+00 -4.2612411899e-02 1.4527463201e-01 -8.9145824051e-03 3.6418406349e-01
835 -4.0192001020e-01 -3.7991081931e-01 9.5522669761e-01 -9.8423748861e-02 4.0255730524e-02 -3.9000047159e-02
836 4.5047009871e-01 1.1337344085e+00 -8.6150451762e-02 -4.3769155578e-01 -1.7816439969e-01 4.5898192044e-01
837 -1.0289524558e+00 2.5891610515e-01 5.1716486990e-02 3.2015702517e-02 -1.6184035451e-01 1.2960967421e-01
838 3.3164526586e-01 3.2771679544e-01 -4.1058933068e-02 9.3752961132e-02 -1.0798102993e-01 1.4576095191e-01
839 -1.0229763391e+00 -8.4302503003e-02 -1.0332946351e+00 -1.5371946449e-01 2.0300155725e-01 -1.1641704403e-01
840 -1.1674157335e+00 -1.0900100904e+00 1.5868284687e+00 -1.0295611564e-01 2.2626763996e-02 1.1904149574e-01
841 -4.6165029441e-01 -2.4979915011e+00 1.7870328802e-01 1.8602754680e-01 -1.5362426162e-01 3.4645657661e-02
842 1.3514278451e-01 9.3719934225e-01 -1.4202803424e-01 -1.1934297920e-01 1.2798404071e-01 3.9000600167e-03
843 8.0655832754e-02 1.7551292013e+00 5.3836592001e-01 2.8906595839e-01 3.4156278409e-01 1.7416119771e-01
844 1.1272834716e+00 3.5950527025e-01 -3.5822891623e-01 -2.2901553671e-01 7.4846341881e-02 -3.4264642381e-01
845 -4.1550834070e-01 2.3015086965e+00 -7.8198299592e-01 -1.7372656470e-01 1.6554530051e-01 3.4761750295e-01
846 8.7141822401e-01 -8.3992714304e-01 4.8283521539e-01 6.6310084906e-02 -2.5201686047e-01 1.5338365023e-01
847 1.9453239221e+00 -1.2807643699e+00 2.3975874717e-01 3.6408234448e-01 -2.9489956685e-02 1.5400805700e-01
848 -6.1116607684e-01 -2.1343942075e-01 -5.2526615110e-01 -1.2677585667e-01 -8.9975432996e-02 1.8965111413e-01
849 -1.8820347807e+00 2.9002770585e-01 -1.5121046723e+00 -3.5306888909e-01 1.8948514140e-01 3.4208651917e-02
850 -1.1187400676e+00 -6.5306115558e-01 1.9880471410e+00 2.8654156036e-01 2.5923353379e-01 -2.2565545623e-02
851 3.1800569458e-01 1.1930816666e+00 -6.0012128840e-01 4.7718178925e-02 5.5864002176e-02 -6.0081558698e-02
852 1.3704501702e+00 9.8266509234e-01 1.2977240467e+00 1.7285510654e-01 3.0147905637e-02 -1.1325755160e-01
853 -8.9706736372e-02 -1.1301240643e+00 2.4002128705e+00 -3.7380050070e-01 3.0576464849e-01 -8.7394377104e-02
854 -1.1820203424e-01 1.4913286612e+00 -8.2807684299e-04 -6.5426949388e-02 3.3533166111e-03 -2.0943755496e-01
855 -2.3604788013e-01 -7.8090789789e-01 7.8962355916e-01 9.5479918959e-02 2.8356625421e-01 -1.2142992936e-01
856 -1.8268481404e+00 8.7618893516e-01 5.2068235739e-02 4.1381557003e-01 3.4119283190e-01 -2.4850475497e-03
857 1.4008092489e+00 -1.6065859045e+00 5.1688346940e-02 1.4233519028e-01 -1.8053189423e-01 -1.7782522326e-02
858 1.1028314049e-01 -1.0521531092e+00 2.3479282718e-01 1.2475914071e-01 -1.0369120681e-01 8.8029813851e-02
859 6.2522414354e-01 -1.1966224980e-01 -8.9386060440e-01 4.1824599210e-03 -2.6849283551e-01 2.9390710295e-01
860 1.5526623345e+00 1.0141103469e+00 1.8508851041e+00 -3.1957179622e-01 1.2807412811e-01 8.1791734618e-02
861 2.8765959297e+00 1.8227046368e+00 1.6289846823e-02 -2.4278496410e-01 -1.4554459137e-01 4.6976631751e-02
862 2.8235864086e-01 6.8237828047e-01 1.5814786800e+00 -5.5160654233e-01 -3.3611466176e-02 2.8066568698e-03
863 1.1209905493e+00 1.7031835590e+00 1.4217841480e+00 -2.4440080024e-01 -3.1768351351e-01 -5.6570865786e-02
864 -1.8097028773e+00 -4.6062769162e-01 1.4520912211e+00 8.0928578565e-02 -6.4437063739e-02 6.3003038555e-02
865 5.1428227943e-01 8.4026268322e-01 -2.1640840180e+00 2.4250667430e-01 -5.7403883658e-02 3.4510472291e-01
866 -2.2195578082e+00 -8.1343534804e-01 5.8417984706e-01 -2.1034463273e-01 3.0585047315e-01 1.7028060604e-01
867 -6.5266422434e-01 -1.1973836588e+00 7.2162534317e-01 2.6903827840e-01 -9.4162386460e-02 -6.1670074251e-01
868 -3.3046890267e-01 8.3973898059e-01 9.1150741873e-02 4.6190098774e-01 1.7481593199e-01 -1.8866584785e-01
869 2.1886253235e-01 -3.3214156977e-01 -3.7842755993e-01 -1.8266191684e-01 3.8656873823e-01 -1.1382599154e-02
870 -9.9981487781e-01 -1.5290887257e-01 -1.1209933187e+00 3.0811893282e-02 -9.3944740523e-03 -3.9562134298e-04
871 1.5467246148e+00 1.9849395134e-01 -1.4431419954e+00 -1.4826776368e-01 -2.2693451019e-02 -1.0495202173e-01
872 -4.3325903764e-02 1.0614995482e+00 8.9206862676e-01 -5.9897467925e-02 -5.5369352567e-02 1.5151756700e-01
873 5.7520472725e-01 1.0989218565e+00 -5.2541522441e-01 1.1533346781e-01 -1.3601460958e-01 1.9986416000e-01
874 -1.5910639312e+00 4.0450959460e-01 -1.1756300721e+00 -9.3824315163e-02 3.6909283886e-01 -2.2737375169e-01
875 9.0847144126e-02 9.6479963866e-01 -9.1162976375e-01 2.1465727109e-02 -3.6841054654e-01 3.5316634500e-01
876 1.6292508667e+00 -3.4407430981e-01 -2.0661744981e+00 -1.9037868490e-01 4.1717386015e-02 -5.4207425561e-02
877 3.5397970501e-01 -3.9268075407e-01 1.1364843138e+00 -1.6137505391e-01 1.5352102346e-01 -2.2718830194e-01
878 7.4676163806e-01 -2.5468893333e-02 -9.1850067634e-01 1.5902104990e-01 2.7574732159e-01 -1.0978218294e-01
879 -1.4050815082e+00 2.0550598251e-01 -8.2204290288e-01 2.9984633881e-01 3.6812741487e-02 2.2418596585e-01
880 -3.5613941388e-02 -2.5254651139e-01 -2.1578530156e-01 4.4444563370e-02 -3.3107615082e-01 -7.8527402243e-02
881 -6.7707904146e-01 1.8006804666e-01 1.5719235494e-01 4.3425647200e-01 5.7150637178e-01 1.1093885991e-01
882 -1.5324357122e+00 -1.4263256195e+00 -8.0097498311e-02 -1.2224304249e-01 -9.5150963378e-02 -1.5416054318e-01
883 9.6454587185e-01 1.2373022696e+00 -9.6609333037e-01 1.3460446260e-02 -1.5046219542e-01 -3.7934438692e-02
884 -5.5722868029e-01 -2.1424251904e+00 7.7652655369e-01 9.5867279185e-02 4.9113674002e-01 -4.0887902922e-02
885 -1.1662791371e+00 -1.5208591720e+00 -7.8127199174e-01 4.1504676247e-01 -9.9719637366e-02 1.5335486167e-01
886 1.5990962500e+00 -8.9882458038e-03 9.8399699819e-01 2.7789073490e-02 -1.3692600684e-02 7.0787522957e-02
887 -1.5654125833e+00 1.2567242359e-01 9.7168292827e-01 -2.7058896141e-01 -8.4990156463e-02 3.1831893364e-01
888 -7.2856833172e-01 -7.3167524416e-02 -2.8916017324e+00 -7.1796889738e-02 1.4075611112e-01 -1.0704332690e-01
889 2.2016449620e+00 7.6311344431e-01 -2.2167398982e+00 -2.4619030706e-02 1.3482458340e-01 -6.1671567540e-02
890 -3.4119949864e-01 1.2382038729e+00 -4.1878353828e-01 -4.4636789095e-02 6.6828883952e-02 -4.8226139831e-01
891 4.3342957920e-01 -7.5853979842e-01 1.4470678236e-01 -1.0510079140e-01 -7.7831596090e-02 -7.7982148950e-02
892 -5.6563076898e-01 1.3961646129e-01 -3.2755097474e-01 -1.2239803885e-02 2.1450671426e-01 1.5315255549e-01
893 3.5281497383e-01 1.4749374294e+00 8.4308223790e-01 -1.4251520031e-01 1.0290442250e-01 -4.4298730898e-02
894 1.6266094401e+00 -4.2628965085e-01 -1.3432937818e+00 3.5901354214e-01 -3.6183474233e-02 -3.3450073151e-02
895 -4.3999587434e-01 7.6340017471e-01 1.1094561029e+00 6.0092953673e-02 2.9826513917e-01 -1.6879639223e-01
896 1.0600340997e+00 -1.3089945806e+00 -6.4264933485e-01 3.7405996967e-02 -7.3169969615e-02 -1.3360977494e-01
897 -9.3026553967e-01 -2.0141942313e+00 1.1437330984e+00 -1.7627704425e-01 5.9463735164e-02 -1.0551931763e-01
898 -4.0357945286e-01 7.0671897558e-02 -8.8176739646e-01 -3.1998313804e-01 -1.3508258469e-01 5.5160628290e-01
899 -1.9015913749e+00 -8.1478800578e-01 1.9076807408e+00 -1.5939822666e-01 2.0182678122e-01 1.8006600216e-01
900 -1.6472379183e-01 -1.2542932451e-01 1.8315696249e+00 1.7439239416e-01 -1.0879881895e-01 1.2852265601e-01
901 3.8898966782e-01 -8.6278906053e-01 -1.0807968280e+00 -1.2348890629e-01 3.1124362814e-01 -1.7791163852e-01
902 6.5786282973e-01 -1.3776266100e+00 -2.1545082242e-01 -7.3650814307e-02 -3.7122654358e-02 -7.2761697048e-02
903 -1.5758876901e+00 -8.8423093620e-01 -1.5946126037e+00 2.1034731217e-01 7.7595522413e-02 -1.7052215137e-01
904 6.9231624006e-01 4.2277920827e-01 2.2335844094e-01 -1.3282812470e-01 -5.5533796797e-02 9.0398725331e-02
905 -6.7168919979e-01 -6.6901574065e-01 2.1895408626e+00 6.1642711834e-02 -7.1554572847e-02 -6.2928419300e-02
906 -8.6514189484e-01 -3.8783648773e-01 8.9935587501e-01 -1.3263383545e-01 -1.3394136603e-01 2.6250187915e-02
907 5.6588608851e-02 2.5921855534e-01 -3.6461538818e-01 -1.2120365356e-01 -1.6631642587e-03 1.0386935161e-01
908 3.2226552037e+00 -3.7184003563e-01 -1.2324186605e+00 -2.2993812995e-01 -2.7676046234e-01 1.9537819075e-01
909 -9.1848419257e-01 -1.0375202930e+00 -1.8041164466e+00 1.0422067856e-01 2.0391252550e-01 3.1924407884e-01
910 -6.0096260707e-01 -5.2931631271e-01 1.5218585074e+00 1.8385277757e-01 1.2631959025e-01 -2.5818614678e-01
911 -6.3737682734e-02 5.5916969870e-02 3.4147317986e-01 5.9786566780e-02 3.9390845189e-01 2.2503267431e-01
912 -2.1586076781e-01 3.9389822094e-01 1.6765397516e-01 -2.0353743645e-01 3.0257471826e-01 -4.8512800291e-02
913 2.8049747084e-01 2.9037980693e-01 3.0629658014e-01 3.8378295616e-01 -7.2158470262e-03 -1.0337792577e-01
914 -4.3503572881e-01 -8.2986265164e-01 5.5217214570e-01 -1.1511622769e-01 5.6112255706e-01 3.3396134102e-01
915 6.2863651910e-01 8.3862882267e-03 8.1470303111e-01 -1.6134797368e-01 1.3872023000e-01 -1.7142024461e-01
916 -2.2407774485e-01 -9.3695813788e-01 2.7952029240e+00 -4.2378965829e-01 6.0304262465e-02 3.9351225912e-01
917 4.6694549804e-01 -5.8823022854e-01 2.7374482120e+00 2.3331539596e-01 -4.8961867654e-02 -1.4362537074e-01
918 7.1974196592e-03 1.4690121325e+00 1.0069423569e+00 -2.8158412825e-01 4.6675866681e-02 5.1713652351e-01
919 -4.3176974324e-01 1.2809819567e+00 -1.7195756670e+00 -2.4840417311e-01 -2.3164468887e-02 -3.4451285726e-02
920 -7.4295604192e-01 3.5469787347e-01 9.5702607034e-02 1.4990354849e-01 2.7325089128e-02 5.0040399487e-02
921 -1.7136882014e+00 -6.7859788367e-01 -6.9820109942e-01 -2.0410941132e-01 -6.1071188769e-02 -4.6652106715e-01
922 8.9698159685e-01 -5.2567383038e-01 -1.2824515198e+00 1.8645761410e-01 -2.8058286080e-02 3.4270730394e-01
923 -5.9047436666e-01 -4.4133031044e-01 1.3774422469e+00 6.5490843785e-02 -3.6186242388e-02 -5.8954860940e-02
924 -1.0195512529e-01 -6.5434300764e-01 -1.8225230035e+00 -3.7445500385e-01 4.2050744280e-02 -3.6856221862e-02
925 -2.1325366177e-01 -7.3914798195e-01 -8.8283146991e-01 8.3922733229e-02 -2.7179003946e-01 2.5598021667e-01
926 -6.4649061310e-01 7.1903418092e-01 2.0344831326e+00 -1.8023720436e-01 -2.5133032059e-01 1.6867206076e-01
927 3.7949152642e-01 4.4493220201e-01 7.1131577295e-01 -4.9293614746e-02 1.0891146597e-01 -1.4630208344e-01
928 -8.2393782229e-01 1.2081559746e+00 -3.3045188364e-01 2.4075470809e-01 1.2093790529e-01 2.6123515071e-01
929 -5.2287650531e-01 6.1754393063e-02 -8.7933016910e-01 1.1546118636e-01 4.0360407254e-01 -1.9566165558e-01
930 1.3315096278e-02 -1.4173908464e+00 -6.0048212988e-01 5.1594586458e-01 -1.8675671725e-01 -6.7096869353e-02
931 -1.2825767405e+00 -9.8550518879e-01 5.3432348231e-01 7.9541494405e-02 2.2111489887e-01 -3.8912443241e-01
932 -8.3039952584e-01 1.2071627146e-01 6.6280191195e-01 2.4222411499e-02 -7.9179396130e-03 1.3402863660e-01
933 -6.2061571159e-01 -1.1555629243e+00 2.5346858652e-01 -7.7423243893e-02 1.9983081828e-01 -1.4522232820e-01
934 -3.8287040671e-01 -1.5157958129e-01 7.1041329445e-01 -3.2187992910e-02 -5.0591402487e-02 5.2266077976e-02
935 -1.0200312253e+00 -1.2281925576e+00 -1.0856648674e+00 -3.7515378744e-02 -1.3372330217e-02 -6.0026039391e-02
936 2.6737754289e+00 4.3323333299e-01 -6.6164327651e-01 -2.4600666983e-01 -2.8172630052e-01 -2.1694566394e-01
937 3.3825474180e-01 7.1842260020e-01 1.4347113212e+00 8.1612893611e-02 9.5294452724e-02 3.7698227035e-01
938 -6.7624991698e-01 5.4245722693e-01 -2.1642922353e-01 3.5607329334e-01 -1.1661627504e-01 -7.7036295531e-02
939 -4.3109283738e-01 1.0984813444e+00 -1.2187940570e-01 -7.5707636241e-02 3.3973339072e-01 6.1588316984e-02
940 1.6030860564e+00 1.9856196530e+00 6.8517959023e-01 3.0785811182e-01 1.3669069052e-01 1.8142225895e-01
941 4.4822409508e-02 -9.3276188316e-01 -9.3728752934e-01 5.4298723127e-02 -1.1196683290e-01 -7.8062233986e-02
942 1.6749615003e+00 -5.6659068718e-01 -1.0842564267e+00 -6.8548280956e-03 2.7832695494e-01 1.6083633519e-01
943 -1.2998196660e-01 1.3159713783e+00 -1.5031234173e-01 -1.2133807016e-01 -6.3131963809e-01 1.0436474892e-01
944 1.0253962068e-01 -1.9976014065e+00 4.6231943395e-01 -8.5876791407e-02 -1.8805812899e-01 -2.5332185777e-02
945 -8.5251825658e-01 3.1870253580e-01 -5.7403154951e-02 1.1705930080e-01 -5.2470378094e-02 7.7867233048e-02
946 9.8953010355e-02 -1.2184253938e-02 -1.4167838882e+00 2.2872340019e-01 1.7986333043e-01 -1.3128208213e-01
947 -9.3082865243e-01 5.9539881056e-01 3.5842520606e-01 2.8314635122e-02 -8.3050994620e-02 4.4783759095e-01
948 6.8275940788e-01 -7.1067715390e-01 -7.2023715172e-01 -4.1628342389e-01 -3.7305521812e-01 -8.4012081452e-02
949 1.0207659622e+00 -1.6729029469e+00 -1.5974719910e-01 -1.1233433120e-01 -4.4270531608e-01 2.8970345986e-02
950 -1.1446758593e+00 -3.8214839263e-01 5.6539705016e-02 1.0953123429e-01 9.9984177112e-02 8.7682215221e-02
951 -7.1126494119e-01 1.4414658704e+00 -1.2752825353e+00 -3.1007883111e-01 -4.4650425126e-01 1.3014756871e-01
952 1.4139918994e-01 1.3462460754e+00 -5.6630252724e-01 -2.5131560780e-01 1.2885595098e-01 1.6346024439e-01
953 1.3103147380e+00 2.4374700284e-01 -6.8385554451e-01 -7.3575693617e-02 -1.6551995347e-01 2.4740389084e-01
954 -3.5508218772e-01 -5.8476578537e-01 1.2340399462e+00 2.8110891150e-01 2.4161427547e-01 -1.6615199741e-01
955 -1.4710191591e-01 8.7052248603e-01 -1.1163970670e+00 -1.5289847973e-01 9.5030283398e-02 -2.3153932238e-01
956 -3.5177040596e-01 -9.1233861261e-02 1.1345606343e+00 -1.7816897692e-01 -6.4688843615e-02 4.2818287157e-02
957 -4.9932960478e-01 -4.1477313075e-01 -7.8315618342e-02 -6.5948058236e-02 5.7531905122e-02 -5.2726341466e-02
958 -8.5162104274e-01 -3.8647815501e-01 9.4125939994e-01 1.5259375632e-01 -1.0195803314e-01 1.2970717417e-02
959 -3.5130194033e-01 -6.5050411239e-02 3.3583496967e-01 -2.1439565908e-01 9.1535722523e-02 1.2075392288e-03
960 -1.5472559529e+00 1.1086924242e-01 1.0700425456e+00 1.6879285559e-01 -1.4152598835e-01 9.3357583296e-02
961 1.9891962770e-01 1.9442655678e-01 4.7510174659e-01 4.2731245701e-02 -2.9637961618e-01 -3.3123952591e-01
962 7.8286794313e-01 -1.4222881268e+00 -2.4308991488e-01 2.2373836322e-01 3.8855466433e-01 -1.4657214991e-01
963 -6.8892803525e-01 4.5154560642e-01 -9.8873777304e-01 1.2683296847e-01 -2.4757463411e-01 2.0715873724e-01
964 -9.5581965574e-01 -8.2629716135e-01 2.6598255580e-01 -1.7141895139e-01 -4.3230499483e-01 6.5210472761e-02
965 8.0812878820e-01 -1.1507507778e-01 -1.1854499787e-01 -3.9076175370e-01 -4.0570123574e-01 -2.3765029017e-01
966 1.8441074827e+00 -9.4283477492e-01 9.8286988048e-02 1.7325605260e-01 -2.0876208598e-01 4.8051681931e-02
967 1.1830804595e-02 -7.2120245993e-01 -1.1188641712e-01 9.1885244156e-02 4.0154147513e-02 1.2575985303e-01
968 1.2256107148e+00 4.5698903394e-01 -1.0648597139e+00 -4.2161812036e-01 1.6208946170e-01 -1.5058640571e-01
969 -1.3423236484e+00 1.8480548324e-02 1.0894994815e+00 9.9233330126e-02 1.5204473589e-02 -1.1559379524e-01
970 1.8973973823e+00 -3.7213182627e-01 9.3245108606e-01 1.2287993429e-01 -9.4640045372e-02 -4.4832975453e-02
971 -6.7088401764e-01 6.1268063180e-01 4.2245645371e-01 -5.3448912707e-01 2.9031318185e-01 9.2150176397e-02
972 -1.0420484816e+00 -4.3889310015e-01 3.5222445931e-01 -6.9464452256e-02 -2.0156660273e-02 6.3878289902e-02
973 -8.4175392181e-01 2.1638336837e-01 -1.0225985722e+00 1.9478630331e-01 1.6694176564e-01 -4.5475882967e-02
974 -9.2078302410e-02 5.6973791914e-01 -1.3196673068e+00 -1.0634457984e-01 2.5370130010e-01 -5.9948231937e-02
975 -2.9663295933e-01 -6.2130438840e-01 -8.4339551179e-01 1.6106132557e-01 -1.2915635553e-01 -2.2630742186e-02
976 6.0491893229e-01 3.1560137634e-01 3.7321167356e-01 7.2200303138e-02 -1.8910939249e-01 3.9213544656e-01
977 -6.7135211629e-01 -5.4198395226e-01 -2.9176743944e-02 -1.3027509016e-01 -3.5563287879e-01 -1.1929987882e-01
978 -2.4734358125e-01 -5.9520562360e-01 -3.6052454717e-01 6.5442454941e-02 3.0763254787e-02 -2.7474375569e-01
979 1.3016739338e+00 -5.4202787196e-01 -1.2349772633e+00 -2.1465237723e-01 -9.7647830251e-02 -7.1612530821e-03
980 1.5830225864e+00 -4.6184201169e-01 6.6215224323e-01 2.6009849999e-01 -1.3614392430e-01 1.2296197275e-01
981 1.3401268484e+00 -7.2932415289e-01 -2.0573265641e+00 -7.0902209697e-01 4.4240011356e-01 1.6060078605e-01
982 -1.7334539891e+00 -2.5933088874e-01 1.6620387702e-01 -1.5915222709e-01 -7.8193399390e-02 6.1132369530e-02
983 5.3522429582e-01 -1.7427284469e+00 -7.1906002608e-01 -8.4074558488e-02 1.1877164457e-02 -4.3175177146e-03
984 4.6288217136e-01 -2.0697896330e+00 -1.9178433351e+00 -1.4124342434e-01 -3.1073936009e-01 -1.2356496006e-01
985 1.2145674059e+00 -4.5636012737e-02 -1.4402560319e+00 -2.0841454828e-01 8.1858716631e-03 -2.0325255591e-01
986 -1.8548123497e+00 2.1762111907e-01 -4.8641608181e-02 -6.7305766362e-02 -2.0469383391e-01 3.2713432729e-01
987 -1.4688933014e-01 -6.8830044707e-01 1.0967935677e+00 -2.1021696765e-01 -9.4763651829e-02 6.8714220438e-02
988 1.6985256303e+00 -2.5277700923e-01 -3.2285095646e-01 -1.3576543178e-01 -2.3421842091e-01 3.2521103240e-01
989 -1.0314944872e+00 1.8544898789e-01 1.7687101912e+00 4.0775857110e-02 2.1216765166e-01 2.2417134561e-02
990 2.9712865389e-01 -1.5269974076e-01 -1.4273798270e-01 4.2260378092e-03 2.9003711629e-03 8.3496831289e-02
991 -1.4607521794e+00 -2.0597788019e-01 -4.7447709998e-02 2.9956885783e-01 -5.3505659985e-02 6.8529495454e-01
992 -7.3729907044e-01 3.9210576154e-01 8.2663838765e-01 2.6144844043e-01 -4.0755387928e-02 1.0363628482e-01
993 1.1562730152e+00 -3.0711947151e-01 -1.7669737975e-01 -1.4047500635e-01 -1.9235575568e-01 -1.1909663185e-01
994 -3.4278897737e-01 -1.1948245678e+00 1.4291291570e+00 -2.3756340015e-01 -2.4412778939e-01 -1.0339574990e-01
995 3.3732506343e-01 7.3514692938e-01 8.5805049167e-01 3.9925048629e-01 -6.1052581718e-01 -1.0781329035e-01
996 -9.3209717783e-01 6.6534169134e-03 2.1507232210e+00 1.7504710927e-01 -2.4808093148e-01 4.1723848443e-02
997 -7.7851232855e-01 -9.3271568304e-01 -1.0509037808e+00 -8.4390406486e-02 2.7945017437e-01 1.4330040558e-01
998 8.2258202605e-02 -1.6182091480e+00 2.0135039436e-01 -1.8226194262e-01 1.1621036065e-01 1.2042344895e-02
999 -1.6112966350e+00 1.2607682986e+00 -1.5985371676e+00 -2.0463441890e-01 -7.3595808433e-02 -4.8015833564e-02
1000 -8.0651475030e-01 2.7296614284e-01 -3.9698494335e-01 3.2929757847e-01 -3.5328672820e-01 -9.4354667680e-03
1001 -1.5615585246e-01 5.0478142093e-01 -1.2481140613e+00 3.3655879300e-01 -2.6792373968e-01 1.0457011153e-01
1002 -2.8148589189e-02 -5.6405666612e-01 2.3128150671e-01 -4.2933304712e-03 1.0867297232e-01 8.1963040177e-03
1003 6.0393355522e-01 -1.1786090301e+00 3.8200737372e-01 1.4053472207e-01 -8.4607588613e-02 4.0165344294e-01
1004 3.8370397565e-01 1.5419940068e+00 -8.8792200456e-01 2.7863575461e-01 -6.4954681365e-02 1.6737790957e-02
1005 -1.3201492385e+00 -9.4218266687e-02 -7.9501045489e-01 -6.1228674452e-02 1.9097600580e-02 -1.5627292049e-01
1006 -1.0068344897e-01 -1.2551490332e-01 1.2517313408e+00 -3.8349553841e-04 3.1374092944e-01 -1.2736813938e-01
1007 -9.3727753633e-01 -2.4563597353e+00 1.6013162481e+00 -2.3236423962e-01 3.3680994451e-01 -1.3652084005e-01
1008 9.3151332214e-01 -2.7168296099e-01 -1.9109654029e+00 2.1617452353e-01 2.0582355448e-01 -3.3306347705e-01
1009 8.3178796868e-01 9.8142551197e-01 5.4098126100e-01 5.5671535756e-02 -8.6447510986e-02 1.4088783007e-01
1010 -8.3078089558e-01 -7.7047664468e-01 -2.7491807289e-01 2.9314393130e-02 1.5339026196e-01 -3.1804483387e-01
1011 3.7290644106e-01 -1.0685265013e+00 -1.4476088314e+00 7.0528280588e-02 -9.0566874392e-02 3.4335859562e-02
1012 -6.7383323658e-01 -4.2463220107e-01 -1.5296167195e-01 1.2578002411e-01 1.4815703284e-01 -2.8076080765e-01
1013 2.7900545462e-01 -1.1062544235e+00 -4.3003753543e-01 -1.4732777234e-01 2.8501106729e-01 -1.0406813527e-01
1014 -2.5991665246e-01 3.8737219084e-01 -1.4073681511e+00 -2.1490140874e-01 -3.0621828640e-01 -2.9154145764e-01
1015 -1.5662823425e-01 1.1532281318e+00 -2.0202045201e+00 2.4190795843e-01 1.4310427229e-01 -6.8941313120e-02
1016 7.1749440660e-01 2.4384779103e-02 9.7327041255e-01 -3.1259444039e-01 -1.7246631656e-01 5.2340928084e-01
1017 -3.0480915024e-01 -8.6069384753e-01 -6.0887102149e-01 -3.5968466833e-02 -1.5261262498e-01 1.0160126927e-03
1018 5.6979301542e-01 -8.7442218445e-01 -5.1856235696e-02 1.2961554261e-01 2.8165468497e-01 1.0308540582e-01
1019 5.8929775383e-01 3.1855239704e-01 9.8636508317e-01 -1.8541812525e-01 -8.6988822907e-02 -1.1140451352e-01
1020 6.1815584452e-01 -2.0129522286e-01 -3.3962849525e-02 4.7028840650e-02 5.0319712098e-02 1.9760598769e-01
1021 -4.4193584788e-01 5.9390342490e-01 1.5650500680e+00 2.5056243503e-03 1.0156921045e-02 -4.2535664185e-02
1022 -3.7519421099e-01 1.1508041497e+00 -3.3827232089e-01 7.9856013783e-02 1.1997721917e-01 2.4255385804e-02
1023 2.9368011586e-01 -3.5936762441e-01 6.8606605491e-01 -6.2398485553e-02 -2.8444373835e-01 3.8177202029e-01
1024 2.2436998112e+00 -8.4932647108e-01 -1.6031355477e-01 -1.3543480038e-01 -1.4612256725e-01 -1.6430820488e-01
1025 -2.0345351238e+00 6.6522922040e-01 -1.1273741428e-01 4.0910267153e-02 -7.7275023690e-02 2.3449858130e-01
1026 6.8960311963e-02 1.1667321927e+00 -7.7203813641e-01 -2.6039397173e-01 8.6218840614e-02 -3.0534462543e-01
1027 6.5701581023e-01 -6.9356147967e-02 7.4171754128e-01 5.6076224217e-02 -7.6504062670e-02 -3.4547114894e-02
1028 5.8407690798e-01 -2.5128989080e+00 -1.5917411800e+00 -3.6691433287e-02 -3.1688462838e-02 5.3061838984e-03
1029 -1.0250770155e-01 -5.9927325363e-01 1.0530013208e+00 2.8785530168e-01 1.3092812958e-02 7.0324953876e-02
1030 -2.5456523204e-01 9.6709135259e-01 6.4384225607e-01 1.5278792484e-03 1.9397562701e-01 -3.1784365426e-02
1031 1.2368420064e+00 3.7066478341e-01 -3.2950685621e-01 -2.3339602658e-01 5.1643940223e-02 2.3043885020e-01
1032 3.4497970018e-01 -2.2895157626e-01 1.3627250628e+00 5.6970406985e-02 -2.1874373967e-02 1.6787289135e-01
1033 9.2242476720e-01 7.8358546831e-01 1.1607082561e+00 1.0214795389e-01 1.4372379310e-01 7.2955666782e-02
1034 5.8548612009e-01 -1.8436874498e-01 -7.2144241774e-01 -1.0200923473e-01 -2.4745994806e-01 -1.4914069298e-01
1035 5.0168882938e-01 -9.8808360986e-01 1.5960257471e-01 1.5775628481e-01 -1.3610856771e-01 2.2374595237e-01
1036 -4.2043122335e-01 4.5850603278e-01 9.1343871891e-02 2.2475159721e-01 -3.5522778925e-01 1.9621321527e-01
1037 1.1580038471e+00 -7.6336438714e-01 -4.0148066759e-01 -1.8681397901e-01 -3.5819699907e-01 1.9496286930e-01
1038 -5.0038346947e-01 -7.6097975178e-01 -5.7741712579e-01 1.5639160713e-01 -2.7354567775e-01 4.7752488342e-02
1039 -4.6460052872e-01 5.0587686395e-02 3.9134667962e-01 1.5666819988e-01 3.3412786432e-01 2.6778369745e-01
1040 -1.4695625934e+00 -9.1514172327e-01 -1.9482748333e+00 -1.0343844275e-01 1.3579890450e-01 1.7406483657e-02
1041 7.7805836015e-01 1.3869673707e+00 1.3856599796e+00 -4.0187940018e-02 -3.1191457219e-01 -1.8913990778e-01
1042 6.6868847594e-01 -1.0356870215e-01 -1.5038481566e-01 2.3966379720e-02 -4.5039799022e-01 1.7201890711e-02
1043 -1.0118021851e+00 -1.0647855686e+00 1.2353793656e+00 -1.5441955682e-01 -6.0270763540e-02 1.1999757083e-01
1044 6.0282775538e-01 -2.8860415623e-01 -2.8778273187e-01 5.3027249722e-02 3.1631035616e-01 -1.6508687760e-01
1045 1.8685675217e-01 7.2682207795e-01 4.7180603846e-01 -2.4825213210e-01 2.3765046823e-01 7.0082235940e-02
1046 6.3633422140e-01 8.8831879887e-01 -6.2260843959e-02 2.1957807627e-01 -2.1241693260e-01 -2.3329671346e-01
1047 1.3391979972e+00 1.7814400054e+00 8.5589080031e-01 1.2656301688e-01 -1.3626373818e-01 3.5209340409e-02
1048 6.8055823089e-02 1.3703601395e+00 7.0001185195e-01 -3.1415110726e-02 -1.8764216232e-03 1.0160611028e-01
1049 -3.5945206851e-02 -5.2962762813e-01 -7.7075196181e-01 -5.5587466153e-02 -4.9627334885e-02 2.2313456779e-01
1050 1.0380016696e+00 -4.2109596923e-02 9.0288454019e-02 1.1341227291e-01 1.1392376779e-01 -2.3399907054e-01
1051 2.6077498142e+00 -9.6486602533e-01 -9.3077979555e-01 -2.4195608833e-01 -1.1195618974e-01 -1.0721552731e-01
1052 8.4146089475e-01 -1.8938474304e+00 2.9758036193e-01 -4.0870135529e-01 -1.4881315166e-01 -6.0906147046e-02
1053 1.3402956132e+00 8.5136284273e-01 -1.4526038081e-01 1.6868803634e-01 2.5960688820e-02 -4.3677737002e-02
1054 -3.7649565995e-02 -3.1595368791e-01 8.1627123142e-01 -1.4887791635e-01 8.3474756824e-02 2.3523626597e-01
1055 -2.3182962311e-01 -1.9086282694e-01 1.7784691315e+00 1.8973693698e-01 -1.5476495939e-01 -1.5029910683e-01
1056 -4.3158009577e-01 -7.7892132524e-01 1.1536206826e+00 9.5285084088e-02 1.4129041334e-01 2.0172134329e-01
1057 7.0939888976e-01 8.6861281201e-01 -7.4908208606e-01 -1.0300091474e-01 -2.1355547911e-02 5.0951354983e-02
1058 -7.0538932849e-01 1.5253865062e+00 5.0090255603e-02 -2.7278482116e-01 -5.2659820022e-01 8.0969080607e-02
1059 1.4759428882e-01 -3.8709773063e-02 1.6247193190e+00 -5.1531257408e-02 -2.1641508636e-01 1.1679733108e-01
1060 3.9038032151e-01 -2.3505437520e-01 -8.8615576386e-01 1.7026375705e-01 -1.8541672586e-01 7.0839954162e-02
1061 1.4093953840e+00 -7.2256679234e-01 6.9225775476e-01 -3.4090268122e-01 3.8353437016e-01 -2.2573861159e-01
1062 -1.6130218950e+00 1.3840159823e+00 1.0352979950e+00 -1.3060377771e-03 2.3455625605e-02 -1.0972006765e-01
1063 -2.4858167879e-01 -1.1779211571e+00 -5.7146385890e-01 -1.6433767260e-01 -3.8774110815e-01 1.4398601765e-01
1064 1.9089090406e-02 -7.3006584732e-01 1.2511132662e-01 2.4888911137e-01 2.2046974031e-01 -4.7833679591e-02
1065 -3.0206759226e-01 -5.1132214259e-02 7.2260641609e-01 -3.7997525534e-02 7.6921333838e-02 -1.7154036738e-01
1066 1.9075478516e-01 -8.6395509403e-01 -1.1791797384e+00 -2.3117175423e-01 2.2989203053e-03 1.6393709852e-01
1067 3.0330188125e-01 -1.7843385860e-01 1.1225846178e+00 -2.1526347897e-01 3.0132192512e-02 -2.5133187681e-02
1068 -7.8764529618e-01 -6.3725119106e-01 4.2133852713e-02 5.2697594440e-02 -2.3786210544e-01 -7.1332067722e-02
1069 6.2123217536e-01 7.4528597407e-01 1.0564285450e+00 2.1057505097e-02 1.9763500197e-01 -2.1634695217e-02
1070 7.0256701013e-01 -3.3835303293e-01 4.6015757327e-01 -3.0364843083e-02 -7.9344303829e-02 1.4319196229e-01
1071 4.2348385759e-01 -6.3635298668e-01 -7.0043729641e-01 1.8737741013e-02 1.6108758542e-02 -9.7457821399e-02
1072 6.6389362284e-01 3.1899400627e-01 1.1291965424e+00 -5.7066093820e-02 5.1951830346e-02 8.0002869910e-02
1073 4.6695731766e-01 3.7941849217e-01 4.1200566042e-01 2.0462017430e-02 4.3545161651e-01 6.0840540569e-02
1074 1.5215167811e+00 1.2176573215e+00 -3.8587424381e-01 -1.0773264849e-01 3.1019786232e-02 -9.8015323537e-02
1075 -1.3262847086e+00 -1.1217786237e+00 -1.0929240977e+00 -1.1366374702e-01 8.2282183359e-02 -2.6927370077e-02
1076 -6.3724005643e-01 7.7381774369e-01 -1.0162487154e+00 3.9219222135e-01 -1.4803887408e-01 -2.7384254019e-01
1077 -1.3468040418e+00 -2.7853011309e+00 6.2673436825e-01 -1.8543646418e-03 -6.3469020155e-02 1.0645218246e-01
1078 3.9428655004e-01 6.2198338824e-01 -1.0929113593e+00 -7.6051369201e-03 -4.0653347460e-02 -6.3525548751e-02
1079 5.6255484736e-01 2.7110065690e+00 5.7349102153e-01 -4.7836743502e-01 -7.4468826389e-02 4.6267303839e-01
1080 2.8983123519e-01 5.4564268391e-01 -1.0312955455e-01 1.6941957436e-01 1.8987491867e-01 -2.7136273961e-01
1081 7.5395668263e-01 -6.6095893038e-01 1.6347596721e+00 9.3903745632e-02 8.0800993291e-02 -3.7896878642e-01
1082 1.1037214684e+00 -7.9706122355e-01 4.3117512582e-02 3.7461453654e-02 -7.6057983461e-02 -9.2932771400e-02
1083 2.2698047972e-01 -7.6632193258e-01 1.6809988406e-01 -7.9722021134e-03 1.0108062770e-01 -7.8127679260e-02
1084 -5.7465675696e-01 9.3845235413e-01 -9.1909811284e-01 -1.3022327670e-01 1.0618633153e-01 -8.9121794728e-02
1085 1.4953026893e+00 -9.6723305156e-01 -1.3872748362e-01 1.6397655973e-01 -4.4113095685e-02 1.1335118322e-01
1086 -7.7382134953e-02 1.3888101868e+00 -2.4812771236e-01 1.2493247502e-01 2.6859314036e-01 -9.0969990687e-02
1087 -8.2103913807e-01 -3.3194203526e-01 -3.4893562304e-01 2.8022703910e-01 -3.4129887266e-02 -2.4171797648e-01
1088 2.1150684224e-02 -4.7076485203e-01 1.9436016328e+00 1.6093016659e-01 -2.2112036335e-02 -4.0697528766e-01
1089 1.6569770762e-01 8.7711739856e-01 -3.8998371756e-02 -1.9601560010e-04 -1.8987421092e-02 5.8783283080e-02
1090 -8.2626189000e-01 -3.0727920548e-01 -1.2445279146e+00 -6.1258192670e-02 3.4466238249e-01 -1.2869009871e-01
1091 -4.4771710659e-01 -1.9605652151e+00 -1.5919538535e-01 4.2596069170e-02 -5.3750283098e-02 -8.4204213788e-02
1092 -2.5365261385e-01 -7.3875799894e-01 8.5127479684e-02 -2.5549673090e-02 -1.1016494172e-01 3.7968599821e-02
1093 -7.7690979958e-01 -1.0787383542e+00 1.1642577875e+00 3.0993678855e-02 -1.7164673758e-01 2.1084579745e-01
1094 1.3537880450e+00 -6.3237175090e-01 1.1900356291e+00 -6.5861880676e-03 1.2739571774e-01 9.5795518001e-02
1095 -2.1062912770e-02 5.3384032670e-03 -8.2651393439e-01 6.0124176320e-02 -3.9501914351e-01 -1.4656336352e-01
1096 7.7865246875e-01 -7.8372056368e-01 6.0601955339e-01 -2.7349010339e-01 1.0474328447e-01 7.2424946125e-02
1097 2.4485423337e-01 -3.9248419587e-01 -8.9331054677e-01 -8.6786490464e-02 -1.4931491254e-01 3.3868246664e-01
1098 2.4631340861e-01 1.3685474155e+00 1.0122703435e-01 -1.3359763868e-01 1.0837125219e-01 -2.9560872519e-02
1099 1.3671652379e+00 9.8030247988e-01 2.5589758249e-01 -5.0758700584e-01 1.1693172317e-01 -2.5396756140e-01
1100 -1.2459631403e+00 -2.2241310505e-01 -1.3322911718e+00 -1.7868451651e-01 -2.4303671150e-01 1.3837337865e-01
1101 -3.0975940041e-01 -4.7725998846e-01 1.6042074601e+00 -9.5950993825e-02 -1.2465357459e-01 1.1441937767e-01
1102 3.0844025951e-01 6.8366203881e-01 -1.1377355899e+00 -1.7776807315e-02 -2.2641889824e-01 -1.4607285194e-01
1103 1.6993997443e+00 1.3933078725e+00 -9.9480947420e-01 -3.0276631763e-02 2.6954435213e-02 -1.9567604346e-01
1104 3.6944477399e-02 9.7086573249e-01 7.3487425143e-02 2.6253140437e-01 -1.2510372405e-01 2.0583659036e-01
1105 1.3548398712e+00 -1.4787249320e+00 -1.2021027557e+00 -1.5667817814e-01 -2.1305113950e-01 -8.2271840820e-02
1106 1.3267535751e+00 1.1127378416e+00 -9.7981836353e-01 1.2112789703e-01 4.0757192789e-02 1.2880955458e-01
1107 -2.0046124944e-01 1.5449552081e-02 -1.3153913355e+00 3.6978754698e-02 -1.5937591117e-01 -2.4230598005e-01
1108 -3.1448565030e-01 4.3305913667e-01 1.4917607207e-01 -9.5097730794e-02 -6.1154789351e-01 7.2730452053e-02
1109 1.1709761831e+00 1.0002795971e+00 -4.3101158263e-02 1.8377571707e-01 2.6474516726e-01 -4.0788209943e-02
1110 1.0101882655e-01 -2.5652920264e-01 -1.1246503752e+00 -1.7947124105e-01 -2.7849986378e-01 3.6868571733e-02
1111 -4.8728715654e-01 4.0602387698e-01 -7.7560103677e-01 -7.5627167210e-02 -1.9288035448e-01 1.9245031088e-01
1112 1.1056903558e+00 -1.9017167562e+00 5.1597907669e-01 -3.5515063262e-01 -1.6166396030e-02 3.6362556962e-01
1113 -6.7351108171e-01 -9.1564671539e-01 -1.2870185467e+00 8.6561749190e-02 1.7683392821e-02 -2.0747340523e-02
1114 -1.1236495486e-01 6.4016217500e-01 1.2149871560e+00 1.3740200838e-01 -4.2915966205e-01 7.0810996257e-02
1115 -3.8259769990e-01 6.9756968722e-01 -1.1156281707e+00 -3.3183327295e-01 2.2623045430e-01 5.9711292066e-02
1116 5.3375051022e-01 -1.3249815662e+00 4.7441890847e-01 2.7744369629e-01 1.4795465652e-01 -1.5496040476e-01
1117 8.1181697697e-01 -7.1558862269e-01 1.3506796626e+00 -1.4333396147e-01 -2.5447907601e-02 5.6293783815e-02
1118 1.9605768481e-01 -2.1900963689e-01 4.6738701154e-01 2.8342383241e-01 1.1034330683e-01 4.1622891473e-01
1119 3.9107376338e-01 7.4275847164e-01 -5.8480849283e-01 -9.1378315551e-03 -5.6060599956e-02 9.0786002191e-03
1120 -3.0122676628e-01 1.8195654856e-01 1.2074592481e+00 -2.1760644449e-01 -8.5439114741e-02 -2.9833663969e-01
1121 -5.9368432279e-01 8.9497575380e-01 1.2820425795e+00 -5.7040728747e-03 -1.1020200249e-01 -1.8556002532e-01
1122 6.3621889236e-01 9.1280699701e-01 1.3260452697e+00 1.3055860682e-01 2.1690057891e-01 -1.0102521253e-01
1123 5.1928573988e-02 5.6476286359e-01 -3.9120181068e-01 1.6805922615e-02 7.0744826488e-02 4.3836422243e-02
1124 -2.3240871157e-01 5.5349591767e-01 -1.8300342245e-01 -1.0648018170e-01 1.3735743855e-01 1.1920257388e-01
1125 3.5544100932e-01 -5.4982414955e-01 1.0609087873e-01 2.0838579836e-01 -1.4489945145e-01 -2.9164735444e-02
1126 6.4453537622e-01 5.8388182670e-01 -6.0261100975e-01 6.7425869908e-03 -3.7140507408e-02 -3.5879067801e-02
1127 -1.3633238349e+00 5.4559648650e-01 -7.1808362144e-01 -1.3388240933e-01 1.6748930911e-01 1.2384493140e-02
1128 -1.4614885600e+00 -1.0636800962e+00 1.7287510232e-01 2.1884422281e-01 1.9735957788e-01 -4.3728087736e-02
1129 1.5511921404e+00 1.9123467398e+00 2.2763655559e-01 1.0703300248e-01 8.5135493835e-03 -1.9880495276e-02
1130 1.0263352444e+00 -1.8160247009e+00 -4.8595480933e-01 1.0844607332e-01 -8.5012209679e-02 -1.8749203317e-01
1131 4.6223178207e-01 6.4919836502e-01 -7.3231040261e-01 1.0796089524e-01 -2.2824936049e-02 6.3042380569e-02
1132 -1.2842003590e-01 -1.0975428826e-01 4.1136738792e-01 -2.2580864819e-01 -2.2550276104e-04 -4.8419353603e-02
1133 1.5653704825e-01 1.0979109764e+00 5.8276002684e-02 5.1627664618e-02 1.1622122584e-03 -1.6911950088e-01
1134 1.9735488504e-01 -1.0101381493e-01 7.4094870362e-01 2.7869328377e-01 4.7725298954e-02 1.3673854180e-01
1135 7.8819460046e-01 -3.6909246945e-01 1.9041664895e-01 1.4685642952e-01 9.9183563920e-02 -2.6494201268e-02
1136 -5.3310600545e-01 2.4221894711e-02 7.3303194885e-01 1.6920858570e-01 1.0419779438e-01 -7.6657738052e-03
1137 2.5657732225e-01 -9.0963749975e-01 -1.1009342777e+00 -5.6367344626e-04 -3.5216071765e-02 6.3973401583e-02
1138 1.7742997366e+00 5.5684812675e-01 -8.5023864163e-01 2.4469071148e-01 -9.0036774566e-02 -3.9308425138e-01
1139 -6.3386750683e-01 4.3461154094e-01 1.7626457488e+00 -1.0669837755e-01 3.3999812145e-02 -1.8143727255e-01
1140 6.5333488499e-02 3.5277641275e-01 -7.0019370661e-01 -2.4302006967e-02 2.8598946522e-02 -2.8044098100e-01
1141 1.0047677927e+00 7.2234203904e-02 3.9766311352e-01 2.9475739241e-02 -1.7916110950e-01 -1.4947260177e-01
1142 -1.7897706381e+00 -1.2058433549e+00 -5.9462086459e-01 -1.5526743077e-01 -5.8681006367e-02 -1.3854448394e-01
1143 -1.2020740813e+00 -2.1071001712e+00 -1.2138029527e+00 1.5616859482e-01 -8.6655506223e-02 3.1962691413e-01
1144 8.3887454987e-01 9.5898403952e-01 3.0434571252e+00 1.0419089903e-01 2.0799328225e-01 -2.5896663713e-01
1145 1.4739086535e+00 -1.7454769307e+00 1.9611060689e+00 2.1632920342e-01 -5.8295247870e-02 -2.5187716257e-01
1146 4.6639454561e-01 8.4066491726e-01 5.2651656075e-01 -1.6068541248e-01 -8.6932018053e-02 -1.0331714535e-01
1147 1.0648748933e+00 8.9744204085e-01 2.2064405757e-01 -2.2092422660e-01 -7.8994897848e-02 -2.6070138916e-01
1148 -7.4750565235e-01 -6.7297592189e-01 1.6899247650e+00 -5.2416101102e-02 -6.7561547824e-02 -6.3320001494e-02
1149 4.4943420604e-02 7.8915816422e-01 3.4828363771e-01 -5.5642006898e-01 1.7274323927e-01 -2.4871465656e-02
1150 5.9641304294e-01 -7.7619461890e-01 -7.2042179484e-01 1.3750782280e-02 9.2430513594e-02 -8.3576757566e-02
1151 -2.5957072530e+00 1.8490689005e+00 -1.7005882275e+00 -4.1437398154e-01 3.8752902503e-01 3.3388358984e-02
1152 5.3810643430e-02 -1.0474106284e-01 1.8604067341e-01 -4.2224715103e-02 -8.1243271007e-02 1.5187710876e-01
1153 3.5674311196e-01 -9.9005208942e-01 -1.2955000980e+00 1.5485176984e-01 2.4099519248e-01 -1.4982932256e-01
1154 1.0179370729e+00 -7.4441986055e-01 -2.1413164069e-01 -2.2746096830e-01 2.1622872195e-01 2.4643707054e-01
1155 -3.6900361746e-01 -1.9676795256e-01 -6.1137696941e-01 -1.9274285091e-02 -9.9616247655e-02 -6.3777371520e-01
1156 4.3054164441e-01 -3.0085929521e-03 -4.4306573243e-01 -1.5101647577e-01 1.1702299347e-01 2.5630900300e-01
1157 1.0850071064e+00 4.8187604622e-01 4.6177618581e-03 -1.0294699652e-01 5.0780079538e-02 -3.4116188967e-01
1158 -3.0454841562e-01 -8.2883563351e-01 -6.2357461630e-01 -6.3987180345e-02 -3.4536181541e-02 4.4244066941e-01
1159 1.6420862532e-01 -1.5803099740e+00 -7.9974196395e-01 -7.0556735098e-02 7.7990056384e-02 -3.1206289257e-01
1160 2.1793633738e+00 -7.4783784198e-01 1.6126933610e+00 -8.5587588585e-02 -1.2422472269e-01 -1.8609064452e-01
1161 3.5760321282e-01 2.1799972259e-01 3.5332315004e-01 -1.6485193950e-01 2.6175349794e-02 -1.4308663418e-01
1162 2.1415005784e-01 -1.2969549015e+00 1.8889344584e-01 -4.1853819992e-01 -1.0960881922e-01 -1.6223125609e-01
1163 -5.3958685839e-01 -2.0539165925e-01 5.2965421578e-01 3.5214237480e-01 9.1381198867e-02 -3.8509877014e-01
1164 -1.1165985899e+00 6.0147387401e-01 7.9686256470e-01 6.3263448490e-02 -2.6832469320e-01 -3.4549572114e-01
1165 1.4314786462e+00 3.6183732801e-01 -4.6143909375e-01 5.5173089320e-01 -3.6123551699e-02 9.5434801420e-02
1166 -9.4403327615e-01 -6.2960923070e-01 -3.4935823020e-01 -1.7265312695e-01 -2.5746950532e-01 -4.4286472867e-01
1167 1.0665625464e+00 -1.2615648522e-01 -2.1640067256e+00 1.8478728149e-01 -3.2006346828e-01 9.6490995692e-02
1168 -7.7516177957e-02 8.8048199226e-01 7.2211160695e-01 1.5587457576e-01 1.6219848978e-02 -8.1174837577e-02
1169 1.1520767180e+00 8.0929080276e-01 -1.7881079107e+00 2.3758026452e-01 -5.7278339053e-02 1.5922717263e-01
1170 8.0214046094e-01 2.2153751759e-01 2.7492869816e-01 9.0986579757e-02 -6.6795480320e-02 -4.3435848327e-03
1171 -9.3650724504e-01 -2.6398851744e+00 -2.4894347784e-01 -5.5526202805e-02 3.1561427861e-02 -3.9620628947e-01
1172 4.9259642764e-01 -1.0809549953e+00 -3.5099214123e+00 -1.1675107516e-01 1.3909656735e-01 8.2462328786e-02
1173 -4.6472715336e-01 -5.8943171289e-01 5.9353909974e-01 -1.5861035123e-02 -3.3445871454e-02 1.7396551119e-01
1174 -1.1412049924e+00 5.2591638591e-01 1.6846160413e-01 -4.8725407128e-02 -6.0690865798e-01 2.9865385956e-01
1175 -1.0754335850e-01 -1.3934362525e-02 2.4120926030e+00 9.2572083692e-02 -7.4677755469e-02 3.8108821270e-02
1176 -1.7220296644e+00 5.3611758763e-02 -1.1892793784e+00 -5.1340158629e-02 -2.1466603473e-01 2.4693907590e-01
1177 8.1151318796e-02 5.6346480307e-01 -4.3332382160e-01 1.8585817657e-02 1.7347365333e-01 -6.9887390665e-03
1178 -1.7063687960e+00 4.3027492001e-01 4.7503785119e-01 2.2737390196e-01 -2.4586738452e-01 2.6686317469e-01
1179 -1.7950394343e+00 -2.8211745526e-01 1.0900029809e+00 2.6589174775e-01 7.3793815278e-02 6.9032591863e-03
1180 8.5374394222e-02 4.4567242404e-01 -4.4890619391e-02 1.8343652401e-01 1.1144005384e-01 -1.4214816305e-01
1181 2.1181678088e-01 1.4940047635e+00 -1.3105209364e-01 -5.2285831789e-02 -3.3484211960e-02 -1.9098362685e-02
1182 7.6473903881e-02 1.1176330127e-02 7.2364585235e-01 -2.7632660445e-01 1.6703152379e-01 1.8523123112e-01
1183 5.6798393440e-01 4.2643849955e-03 -5.2101533682e-01 3.7779127707e-01 -3.7147966586e-01 -2.9758060180e-01
1184 8.2173848700e-01 -3.1569884761e-01 -4.3276960396e-01 -2.0642492188e-01 3.8266763646e-02 -2.2957835326e-02
1185 -6.2673363313e-01 9.9059837516e-02 -3.9964621028e-01 -5.7249094020e-02 -7.3973705171e-02 1.9402243150e-01
1186 5.0897312391e-01 1.3759514567e+00 -5.2430504991e-03 1.5657842783e-01 -2.2030461887e-01 -7.0004526184e-02
1187 -9.5011817921e-01 4.9768756734e-01 4.0454415946e-01 -1.5784290820e-01 -9.9811414001e-02 -2.0078782359e-01
1188 -1.2256534124e+00 -2.9303536896e-01 1.3104368615e-01 4.5102162064e-02 -1.4412605345e-01 -1.4876333576e-01
1189 1.4496764053e+00 1.2646107748e+00 1.6790034511e+00 1.1290797550e-01 -1.3187688083e-01 -7.7717445373e-02
1190 1.7824654762e-01 -6.0778534034e-01 5.1388436976e-01 -8.1980222674e-02 3.7265531069e-02 1.3389701165e-01
1191 -1.8146935892e+00 6.8565139726e-02 3.4164793220e-01 1.2080812894e-01 -1.5989123021e-02 -1.1846327888e-01
1192 1.3260711855e+00 -2.0894721948e-01 3.8625343899e-01 -2.7218736038e-01 1.6549348472e-01 6.3989492996e-02
1193 -1.5600908104e+00 -4.5176504225e-01 4.5584420808e-01 -8.5565008120e-02 1.2078385432e-01 8.3152846806e-02
1194 1.5065164356e+00 -1.2679094269e-01 2.6393768153e-01 9.4809370044e-02 -1.8590910608e-02 -9.4380690253e-02
1195 5.8823408422e-01 2.9769847995e-01 6.7118692905e-01 8.4843055912e-04 5.9540470729e-03 1.0030558365e-02
1196 2.2414137349e-01 -1.4150427106e+00 1.9309445265e+00 2.1458457810e-01 -5.9931872202e-02 3.0623348317e-01
1197 1.0667815552e+00 -1.0676430800e+00 9.3894160918e-02 -3.5389429003e-02 7.4203175802e-02 1.5538796114e-01
1198 -4.8860511256e-01 -7.6223514853e-01 4.1025274996e-01 3.1555628075e-01 -2.0358474353e-02 -7.0848448446e-02
1199 5.5324380139e-01 -2.3743159139e+00 -1.1066298835e+00 3.6123049738e-01 -1.6990926988e-01 3.1823383373e-01
1200 -9.7372136558e-01 1.9170790274e-01 -7.6680265728e-02 4.6159320766e-01 5.0969861366e-02 -2.4223388493e-01
1201 1.1150230043e+00 -4.8876258959e-01 -8.2712125705e-02 -1.6963313164e-01 1.8499701837e-02 8.4214809218e-02
1202 -9.1832360085e-01 -1.5989335605e+00 1.3788008994e+00 -2.5673293317e-01 3.2122178995e-02 -1.2728132567e-02
1203 -6.5230803042e-01 1.2736796594e+00 8.3068481728e-01 -3.5765881422e-01 8.4523108773e-02 5.0103363115e-01
1204 -6.2877291347e-03 -6.5456097138e-02 -1.0876888960e-01 -2.1126479820e-01 -5.5783502362e-02 -3.0881369576e-01
1205 -7.4795997645e-01 -9.4174248604e-01 7.6079618944e-01 2.2869753086e-01 2.1956151301e-01 -1.0698545188e-01
1206 -1.0044294425e+00 -3.4010587441e-01 -2.8474689276e-01 1.0288692463e-01 -2.4626432050e-02 7.8164291625e-02
1207 -1.2757948051e+00 -2.0574339946e-01 -1.0231049319e+00 -2.5672461645e-01 -1.7029158037e-01 -1.4314577239e-01
1208 1.0027497377e+00 -8.4441878452e-01 1.8419361989e+00 -8.8798873639e-03 -2.0895607104e-02 4.0219563272e-03
1209 -4.8437724789e-01 -2.2273021812e-01 -2.6321997429e-01 1.1226788713e-01 5.7987832472e-02 6.6206239144e-02
1210 3.3117081814e-01 1.6066385622e+00 1.5413395050e+00 2.9913984508e-01 -1.2482070620e-01 -2.8637468915e-01
1211 8.2819805673e-01 8.1876471151e-01 -3.3394321776e-01 1.2515819058e-01 3.2173267894e-01 -1.0284756302e-01
1212 1.7699839458e-01 -6.2504221133e-01 -1.9902412439e+00 -2.2823037822e-01 -1.1014369072e-01 3.1229004053e-01
1213 8.9046021184e-01 -4.2166952376e-01 -1.3008310572e+00 1.0271287753e-01 -2.5224545357e-01 2.0304573595e-01
1214 -9.5366156480e-01 7.4740801389e-01 -1.1168012064e+00 -3.9414207861e-01 4.4397473016e-02 -1.8333146381e-01
1215 -4.5303970978e-01 -8.0808081143e-01 -2.4021292021e-01 -1.6367274579e-01 1.0131446656e-01 1.1048120931e-01
1216 1.5297920653e-01 6.4343024584e-01 -2.5842690593e-01 2.5265288903e-01 1.2993158911e-01 1.1389328727e-01
1217 -1.1071726241e+00 -1.1119895401e+00 6.7590239769e-01 1.2237690558e-01 -9.9298393881e-02 8.1733919074e-02
1218 -1.5680217889e+00 -5.8264244872e-01 -1.2376626367e+00 -1.7040548838e-01 -1.1480550657e-01 1.7764674135e-01
1219 -1.4959582144e-01 2.7339629319e-01 1.5025354370e+00 3.9561158383e-01 3.7249336689e-01 -2.2278922599e-01
1220 -3.5208807672e-01 -1.0514506128e+00 -1.5839018431e+00 3.9193209170e-01 1.6844646400e-01 -2.2840331835e-01
1221 -3.8307777467e-01 -7.9440072157e-01 1.1461629537e-01 -5.6244061641e-02 1.1465976033e-01 -1.2399606328e-01
1222 1.0827468247e+00 8.3681487821e-01 -9.0334164771e-01 5.9442250279e-02 1.2118349595e-01 -1.9600780355e-02
1223 -1.4810475096e-01 -8.4182215156e-01 1.3708629935e+00 4.1253068030e-01 4.7419976355e-02 -4.1595770132e-01
1224 -1.0127210456e-01 2.0072620593e+00 -2.5806662831e-01 1.6745084870e-02 5.5127837014e-01 9.8840736222e-02
1225 2.1577381912e-01 6.3458175890e-02 9.8102598112e-02 7.6988105088e-02 1.5747422708e-01 -1.1624388682e-01
1226 1.3922799577e+00 4.2495379287e-01 1.8789514747e+00 -1.8323043942e-01 -2.7592455988e-01 2.4768349163e-02
1227 -9.7371163413e-01 -2.9109747723e-01 1.8381325565e-01 -2.7347155711e-02 6.9321234307e-02 -2.5280581169e-01
1228 9.4364401562e-01 6.0601349485e-02 -7.4570146820e-01 -1.1169913410e-01 1.8259263758e-01 -3.3908261018e-02
1229 7.7475403309e-01 5.2132495346e-01 3.0018609031e-01 1.7790553022e-01 2.0643410480e-01 -8.0991161482e-02
1230 -2.3718465904e+00 -7.6234151591e-01 -8.1495334033e-01 1.6080025087e-01 -7.4329922085e-02 3.3693911397e-01
1231 -1.4941408721e+00 1.9193391337e-01 -5.0417911194e-01 -8.5589859410e-02 -5.8472714883e-01 1.3047016966e-01
1232 -2.4725046957e+00 -1.3519132654e+00 1.0802095672e+00 8.4279625215e-02 -6.1063718381e-02 -1.4058398090e-02
1233 2.1931053328e+00 5.9706775291e-01 -1.9536812384e+00 1.8158571371e-02 2.4849858813e-02 2.8360965806e-01
1234 2.0364190923e+00 8.5768144033e-01 5.0151807369e-01 3.7223012665e-02 6.8496878115e-02 -1.6292326816e-03
1235 -5.5768342036e-01 1.2142159484e+00 -7.8543743879e-01 2.3788192893e-01 1.0603505387e-01 3.2216193157e-01
1236 4.8618500247e-01 5.7730891813e-01 -7.6442599777e-02 -3.4071533405e-01 1.8195235203e-01 -1.6387274189e-01
1237 -3.5751333297e-01 4.7570292923e-03 1.2723371117e+00 3.3507262188e-01 1.5366127301e-01 -4.8807284835e-01
1238 -1.2861810392e+00 1.0501084719e+00 1.7329914218e+00 3.8875732299e-01 -1.2179898015e-01 1.3443781364e-01
1239 4.5062396999e-01 -1.3467257760e+00 -8.9343945778e-01 2.4141090780e-01 7.6761236124e-02 -1.1344637099e-01
1240 -5.2342499073e-01 -2.4104200883e-01 -3.8517960529e-01 3.7084366214e-02 1.8547010057e-02 1.6332235092e-02
1241 1.2095090126e+00 2.1547747974e-01 2.0373623577e+00 -5.8575008025e-02 3.3382268763e-02 -3.1845579974e-02
1242 -1.4260764488e-02 8.4105195857e-01 3.0720156811e-01 1.6450929810e-01 -1.3488819788e-01 -4.5058686095e-01
1243 -7.2692947072e-01 -1.1565534160e+00 6.4311721612e-02 -1.0746906423e-01 1.2188432416e-01 -7.8543493660e-02
1244 -1.6220473073e+00 3.0470890216e-01 -6.7815141466e-01 -1.8157916982e-03 -9.3207630413e-02 3.8615012309e-01
1245 8.7448110272e-01 -6.6332347777e-01 1.0084403845e+00 -1.1637300025e-01 -8.3900421311e-02 4.3607769079e-01
1246 -6.1868317732e-02 -4.1600852960e-01 -4.5237469572e-01 8.6451293892e-02 -2.8830676995e-01 9.4174461944e-02
1247 -4.3399511208e-01 -4.3398642399e-01 -5.3214987619e-01 1.8090908634e-01 2.3832531364e-01 -1.3786678342e-01
1248 3.5322657955e-01 -6.4373845496e-01 2.9962470484e-01 4.3262140900e-02 -5.4899274732e-02 7.6113411168e-02
1249 -1.3889537730e+00 -2.1173783771e+00 2.7755124905e-01 -7.6085773895e-02 -3.6337408280e-01 1.9253012894e-02
1250 1.1340118302e+00 2.0924773662e+00 -1.1533847450e+00 5.1522114087e-01 -8.9746860195e-02 8.3693601032e-02
1251 2.2732861221e+00 5.3624282013e-01 -2.6708420146e-01 1.6498241721e-02 9.9952935917e-02 -1.8021564065e-01
1252 -2.9585562521e-01 -2.8665432871e-01 4.8002928846e-01 -4.7574801651e-02 2.6487480498e-01 -1.2664525639e-02
1253 9.1058465805e-02 7.2920106830e-02 2.9218197416e-01 -1.5973556592e-01 1.2150521727e-01 9.0389328697e-02
1254 1.2108183798e+00 -8.0859293492e-01 -6.0311485031e-01 -8.2444603465e-02 8.4344589010e-02 -2.0348225813e-02
1255 -1.0092448425e+00 7.9479934154e-01 1.0597633897e+00 -1.5687692574e-01 -1.6231219549e-01 2.8525164611e-01
1256 -1.4971864104e+00 -8.1925610137e-01 1.2178984761e+00 -2.4760894890e-02 -1.9630162181e-01 1.4387957762e-01
1257 1.0019580513e+00 1.5571661982e+00 -3.2888689489e-01 -3.6649875394e-01 -4.3083840728e-01 1.6359217838e-01
1258 -1.3186366345e+00 9.1663676279e-01 1.0713122830e-02 1.2788006350e-01 2.1093719793e-01 1.1015111741e-01
1259 -2.7719392213e-01 -1.3769769150e+00 7.4716176099e-01 -5.8496537114e-01 1.6219965230e-01 2.0818621925e-01
1260 -7.4965143180e-02 -2.1939653064e+00 -8.6120262098e-01 -1.7243198479e-01 -2.3102829044e-01 -9.8902336049e-02
1261 7.1772395862e-01 -5.1596302386e-01 -8.6097172410e-01 2.9111914819e-02 -2.6503176805e-02 2.9236322237e-01
1262 1.0146178365e-01 -4.8373120426e-01 4.2790076235e-02 1.5993934207e-01 -2.9038114393e-01 1.0691803288e-01
1263 1.1087664712e+00 -9.0671018787e-01 -8.4276052671e-01 -1.4991946123e-01 4.1311067620e-01 -1.4770951160e-01
1264 9.8082459364e-02 9.8814740442e-01 -7.2855777478e-01 2.3634748605e-01 1.9804918832e-01 -7.9553481684e-02
1265 1.0299213043e+00 -1.0582663349e+00 5.7424768832e-01 2.0183455850e-01 3.8132232729e-01 -1.3896740562e-01
1266 -7.8015036499e-01 6.6015244868e-02 3.9233378411e-01 5.5650218537e-03 -1.8540349611e-02 -3.6502435824e-01
1267 -2.3970070793e-01 4.4446261148e-01 1.9326073267e+00 1.5145004481e-01 -1.9716927218e-01 3.1104522441e-01
1268 -4.4953506470e-01 1.3102703711e+00 6.7571505831e-01 3.9129768631e-02 -7.8549154847e-02 1.9026091493e-02
1269 -6.4000562651e-01 2.6583640257e-01 -1.5144372837e-01 1.1793669026e-01 3.1293777176e-01 1.4123122450e-01
1270 -3.5824523462e-01 5.9037194780e-01 -1.7325331229e+00 -8.5068547373e-02 3.1464063993e-01 -3.4743191753e-01
1271 7.0707300855e-01 -8.5263016657e-01 4.8039028237e-01 7.0776860574e-02 2.6228469401e-01 1.3001663156e-01
1272 2.3361632234e-01 -8.9132688031e-02 1.7231952818e-01 6.9852956155e-02 1.5695932065e-01 -6.8537607074e-02
1273 8.6916656121e-01 5.4271761552e-01 -3.9611141460e-01 1.9928401740e-03 -7.1947519901e-02 1.9152165799e-01
1274 1.8932148241e+00 3.3710925626e-01 3.9962354053e-01 6.4142978160e-02 8.1112163507e-02 6.3600190612e-03
1275 -5.8720211137e-01 -1.8749217079e+00 9.9756954162e-03 -6.2235618259e-03 3.2723560419e-01 7.8134705558e-03
1276 -3.0650111307e-01 1.8501475480e-01 1.0822371671e+00 -4.1861786030e-01 -8.5006191401e-02 -3.0335815368e-01
1277 1.0035331989e-01 2.8959459940e-01 5.4590350694e-01 4.2829495523e-02 3.3345761659e-01 1.1743069333e-01
1278 4.8951891902e-01 2.1412789105e+00 -5.4391784075e-01 -2.5092007937e-01 3.2941176401e-01 1.0381609585e-01
1279 -6.2873713001e-02 -1.6971197549e-01 -1.2024985910e+00 2.9582485112e-01 4.1888393311e-01 -6.9606123521e-02
1280 -2.5696197507e-01 -1.5676749558e+00 8.7410186656e-01 -4.2263628525e-02 5.2378241246e-02 -5.0269383328e-01
1281 5.3600942704e-01 -7.0040125832e-01 -5.2106970266e-01 3.8234495047e-01 1.8606079230e-01 -7.5649903733e-02
1282 2.3743141840e-01 -3.2306839836e-01 -4.7989882966e-02 1.2606741207e-01 4.5044668760e-01 3.0313692614e-01
1283 -3.6112885480e-01 4.7618645670e-01 -1.1920202862e+00 4.1783183336e-01 3.1304117147e-01 2.2195306431e-02
1284 -8.3240864664e-01 2.7884638815e-01 5.3434192693e-01 -2.0203459623e-01 -1.3219592553e-01 5.2365541479e-01
1285 1.2504507539e+00 5.1385082923e-01 -2.9804593934e-01 -8.1257306212e-02 3.4830830416e-01 1.2081772461e-01
1286 -4.8305395485e-01 -1.2420408822e-01 2.0779244849e+00 -2.1196887201e-01 2.9283706733e-01 2.7548131450e-01
1287 5.2357316949e-01 3.0204335482e-01 1.9416527209e+00 -2.1169504822e-02 -9.5457774778e-02 -4.4784504114e-01
1288 4.9766706850e-02 -5.0649964089e-02 -3.9656082158e-01 -2.9875619906e-01 4.5648552734e-01 -1.6000773470e-01
1289 -9.9285982911e-01 8.3534453908e-01 5.3565816275e-01 -1.5982482297e-01 -7.0139242310e-02 -2.7230331298e-01
1290 -4.9978109825e-01 -1.6473485551e+00 -3.4091350995e-01 -3.7859479307e-01 -2.7398596489e-01 -9.1405146021e-02
1291 4.2888764275e-01 -2.2857871179e-01 -4.9148349338e-02 -2.2114047325e-02 -3.6351121520e-02 -7.1539539553e-02
1292 -5.7711384886e-02 1.8979356361e+00 7.8381510744e-01 -2.4515454567e-01 -3.1589897816e-02 -2.4131130232e-01
1293 1.0251767508e+00 1.1990144691e+00 -8.9632542061e-01 1.1261259757e-01 -1.8121074239e-01 1.1542274155e-01
1294 1.5015515235e+00 -2.3097560510e-01 -1.3890929367e+00 7.9133524027e-03 2.0672982339e-01 1.6888542266e-01
1295 9.0758517035e-01 1.0557635758e+00 -4.2694007574e-01 2.5009421074e-02 -6.1923338859e-02 1.1182020464e-01
1296 8.0509083591e-01 8.1871854881e-01 -8.3221972121e-01 1.5222989682e-01 3.3987704556e-01 -7.7243147047e-04
1297 -1.4481367623e+00 -9.5111477407e-01 -3.0325289855e-01 -3.6273387082e-02 3.2073707226e-02 1.4175777800e-01
1298 -7.6325104778e-01 -2.3792718978e+00 -6.1430541202e-01 -1.7869494746e-01 -7.6209718927e-02 -1.1236798322e-01
1299 1.0020094285e+00 8.7617323221e-01 6.1438872669e-01 -5.3190066737e-02 4.9770363752e-02 -1.9983703607e-01
1300 9.8175199063e-01 7.4782847690e-01 2.1198025026e-01 2.0952095599e-01 -2.5960582875e-01 5.2860169640e-02
1301 -1.5425714102e+00 1.0435911449e+00 9.7640888097e-01 -6.0454859696e-02 1.2133350339e-02 1.6864562508e-01
1302 -7.1487850182e-01 2.7483565781e-01 1.1444021994e+00 -2.1714672694e-01 1.1656288095e-01 -8.7242349908e-02
1303 1.4289503478e+00 3.6140244579e-02 8.6546347612e-01 -5.0569051336e-02 -8.9822392821e-02 8.4645557629e-02
1304 -9.0341393845e-01 -2.0143525302e-01 -3.1642079217e-01 -1.5923927250e-01 4.0305274287e-02 -1.4397112352e-01
1305 9.0912946679e-01 7.0593493026e-01 -4.5410471821e-01 -1.4521556500e-01 5.9086782847e-02 -1.8712319581e-01
1306 1.9659071132e-01 -3.3278277871e-01 -4.2474954880e-01 -1.5507756761e-01 -3.3696558688e-02 1.3260118678e-01
1307 -4.3257753736e-01 -6.2911268444e-02 -3.5084312552e-01 2.5810061274e-01 3.9864102336e-02 1.7143919641e-01
1308 9.6954051423e-01 2.5906012473e-01 2.5266629909e-01 1.2896560740e-01 -9.5160720918e-02 -1.8138668034e-01
1309 -3.2096288456e-01 1.9942769083e+00 -6.9159081860e-01 8.7149065513e-02 4.1990908240e-02 -5.2982016653e-02
1310 -1.0338535041e+00 1.2909723154e+00 -9.8913769004e-01 -6.0654271020e-03 -4.5704158073e-02 -4.0948166214e-02
1311 -1.1033164425e-01 7.3179762961e-01 -4.1379213387e-02 -1.4455106062e-01 7.4391521046e-02 -7.8121127484e-02
1312 -2.4480384201e-01 8.9374910974e-02 8.8926092949e-01 -5.1495810912e-02 1.2390528220e-01 2.1429920735e-01
1313 -5.1920239510e-01 2.0753398976e+00 -2.2509853531e-01 -1.5004363534e-01 -9.2427028269e-02 -6.1617910166e-02
1314 -1.4534257435e+00 -1.0138563421e+00 1.2255913445e-01 3.3016283719e-01 4.4715199369e-01 -8.9630283706e-02
1315 -1.2250532373e-01 -8.8911192146e-01 2.3287157688e-01 1.9555682446e-02 2.0168651296e-01 -1.0260103187e-01
1316 1.4716504398e+00 -1.6777367124e+00 -3.1082009494e-01 -1.7104363079e-01 1.0938414973e-01 2.5122342595e-01
1317 -5.9994882202e-01 -7.8314924372e-01 1.1819937386e+00 -2.1113825735e-01 8.4664199293e-02 -2.3126556274e-01
1318 -7.1283180193e-01 1.7256265560e-01 -4.3663571987e-01 -5.5909537061e-02 -1.5336125609e-01 2.7055313454e-01
1319 2.2382749233e-01 -1.1579909232e-01 -9.9971119415e-01 -1.5670135385e-01 -6.3986195944e-02 8.6918111736e-03
1320 -3.7035554284e-01 8.7832485722e-01 4.2731422650e-01 3.5510942133e-01 7.8729482871e-02 -4.0682852125e-02
1321 -8.4276499848e-02 -5.1904530678e-01 -8.5993268357e-01 1.3961653938e-01 -9.3302290076e-02 6.3138334477e-02
1322 -1.3200403123e+00 -8.9375907923e-01 1.1114643645e+00 -5.7627703543e-02 -1.3267333166e-02 -1.4382760335e-01
1323 4.6048647481e-01 9.3358344732e-02 1.4497578913e+00 -4.0611176628e-02 3.0155999681e-02 9.5858590035e-02
1324 1.8126683323e-01 5.8187111380e-01 -8.0410094649e-01 -1.5412927143e-02 -9.1268576720e-03 1.7634306554e-02
1325 -1.5733057298e+00 -2.8886857167e-01 -6.4811927078e-01 -8.9000778246e-02 1.8989113649e-01 7.6374188419e-02
1326 8.9575735785e-02 -1.4316033130e-01 -5.3398727758e-01 -3.5961924311e-01 1.4647615490e-01 2.3568035930e-02
1327 -6.3528279681e-01 -1.6603978006e+00 9.3931329705e-01 1.2580014220e-01 6.1383234258e-02 1.0537310174e-01
1328 9.6445236796e-02 -9.0479511726e-01 5.5767007947e-01 -1.7481638868e-01 5.8978751312e-03 1.1425230206e-01
1329 -5.3446796768e-01 -4.0354130937e-01 -2.7070979222e-02 -9.1072447694e-02 -6.5715835210e-02 2.5963296674e-01
1330 -2.4002749239e-01 3.0497001521e-01 -9.1547013196e-01 -1.2959852343e-01 3.7670228258e-02 -7.1957320021e-02
1331 -4.7417199441e-01 1.5540099368e+00 4.0176693985e-01 -1.6820465689e-02 2.0417138295e-01 -1.3174124934e-01
1332 9.8203399623e-02 1.7046062911e+00 -7.2280763367e-01 1.0615558051e-01 -2.0555356760e-01 1.0337279657e-01
1333 -2.1454346421e-01 9.4989878711e-02 9.0748098371e-01 -6.9791132435e-02 -1.1782557489e-01 -2.4543382116e-01
1334 -2.5543076098e-01 -8.5924153091e-01 -4.7863241485e-01 3.9572350966e-01 -3.5907247598e-02 3.7666512100e-01
1335 -6.2121900240e-01 2.7815338801e-01 5.6189598931e-01 -3.5627609779e-02 -2.9407761656e-01 -3.0651093047e-02
1336 1.2283402730e+00 -2.8977991696e-01 1.8069134021e-01 9.9779812413e-02 -8.3038848838e-02 1.0937978093e-01
1337 -1.2141393095e+00 -9.1810758895e-01 -9.9148127075e-01 9.5588195151e-02 2.3551705112e-01 -3.0117256022e-02
1338 -2.6981416328e-01 7.3024359261e-01 6.0444948512e-01 1.0738971920e-01 1.3134303503e-01 8.5301964219e-02
1339 9.7703466572e-01 1.8653096073e+00 3.8939995090e-01 -2.4384501985e-01 2.4718502180e-01 1.8369142230e-01
1340 -4.4177336378e-01 -1.1215405030e-01 1.3663530878e+00 1.9948049034e-02 -2.5393739479e-02 2.8043809046e-04
1341 4.0448594614e-01 -1.5926309934e+00 -7.4399031125e-01 3.9653366255e-01 -3.0328494253e-01 -2.2293648510e-01
1342 -6.7656592163e-01 1.8552378785e+00 1.4781015207e+00 4.0420974708e-01 6.9942470507e-02 -2.3725859027e-01
1343 1.3077326382e+00 4.3661077064e-01 9.2226457389e-01 -8.3105400819e-02 3.5397103544e-01 -2.5391025709e-01
1344 -4.3359427224e-01 7.9031092051e-01 -9.4338582266e-01 -2.8253830327e-01 4.3629988232e-01 1.5285059848e-01
1345 1.7727561323e+00 1.8316733326e+00 3.9989542069e-01 3.0425157683e-01 -2.5962120476e-01 -5.0710013525e-02
1346 -1.8620063198e+00 1.6027747549e+00 1.0225162587e+00 -1.0986561338e-01 3.8113387150e-02 5.9403889735e-02
1347 -7.4446978030e-01 -3.6534348255e-01 5.5799101339e-01 -3.0276170418e-02 1.2196701181e-01 3.4626563801e-01
1348 -2.3855773179e-01 -1.4123722058e+00 -6.9854108525e-01 -1.2030479270e-01 -3.4433096297e-02 2.5195822859e-01
1349 1.0080526918e+00 4.4066257375e-01 -3.7258441657e-01 2.6095491925e-01 -7.9606078333e-02 1.2271322814e-02
1350 4.9715285422e-01 2.6051044710e-01 1.0297648323e+00 -3.0751533403e-02 2.7012180907e-03 7.0722720045e-02
1351 9.7446920549e-01 -4.5426220101e-01 -8.5438736632e-01 -1.6056334595e-01 -4.3210516648e-02 -1.0067900586e-01
1352 2.2682679518e+00 1.4816119850e+00 -8.0334960412e-01 3.8415980790e-01 -1.0203687439e-01 9.0883827707e-02
1353 -6.9683113149e-01 8.3327788280e-01 -3.5539816106e-01 -1.7440446540e-01 2.6207017555e-01 8.7088904080e-02
1354 -1.8256631011e+00 5.4209734815e-01 -4.4195830424e-01 1.1473492272e-01 -1.9284666419e-01 4.3442234720e-03
1355 3.4932936434e-01 -7.0204464341e-01 -2.4548560007e-01 -4.4765832125e-02 2.2171885390e-01 -2.8552099283e-01
1356 1.1089831248e+00 -1.4068303171e+00 6.7392589323e-01 -1.4632357857e-01 -1.1408772285e-01 -7.9853352411e-02
1357 9.1080765159e-01 -6.9604347138e-01 -4.6737525368e-01 -1.6703109476e-01 3.4573325646e-01 -8.0072736675e-02
1358 -7.6712816195e-02 -5.9490175810e-02 9.4663459189e-01 4.3869230575e-01 2.2585027901e-01 -1.3126413655e-01
1359 1.9592085117e+00 1.5039916432e+00 9.9559702911e-01 -1.2623431279e-01 -1.0516372033e-01 9.0865087506e-02
1360 3.5197460260e-01 -2.7773479999e-03 5.0009520867e-01 -3.2412227280e-01 -4.5484906959e-01 3.9741053944e-02
1361 -5.9564225616e-01 -9.0095068840e-02 -1.1643179863e+00 1.1492851503e-03 1.3312503331e-01 -3.3829650177e-02
1362 1.3662921719e-01 7.5715737010e-01 1.8471653721e-01 -8.2889662651e-02 -1.1040639713e-01 6.4025045055e-02
1363 1.1499347652e+00 -1.4830089121e+00 4.4386580934e-01 1.9712229270e-01 -6.0165150878e-03 -1.7633212952e-01
1364 2.9722172522e-01 6.0364691753e-01 2.5399358446e-01 1.9993209203e-01 -3.1113747503e-02 -2.6092741485e-01
1365 4.9546928337e-01 1.6185900338e+00 6.6652837698e-01 2.4579408743e-01 -2.3804317033e-01 -3.3263790740e-03
1366 6.9293067097e-01 -4.5783848204e-01 -4.8620830524e-01 9.0232702257e-02 2.3045752632e-01 -2.8613558440e-02
1367 -9.6280300932e-01 4.9910345581e-01 -1.7684264215e+00 -6.0927148205e-01 2.2640789461e-01 2.7586427652e-01
1368 3.5607269616e-01 2.2213242270e-01 1.4872055652e+00 1.3819688590e-01 -3.9715203206e-01 6.2490938035e-02
1369 6.3720213629e-01 9.6695257602e-01 -4.0901223622e-01 2.0723694771e-01 3.8650375612e-01 1.1868450625e-01
1370 9.6668907434e-01 1.5277897603e+00 5.2795553201e-01 1.7229650698e-02 -2.2838674864e-01 4.8132016640e-02
1371 3.9886847876e-01 -6.2432292780e-01 4.3328704287e-01 1.0130175658e-04 -2.9041866570e-02 3.6937885119e-02
1372 6.5706625810e-01 -2.6125834898e-01 4.5040926368e-01 1.0079011414e-01 -1.4090000427e-01 -2.1633455692e-01
1373 -9.2886887075e-01 7.1537238838e-01 -1.0033205445e+00 8.2433672572e-02 1.8943621472e-01 2.5961618612e-01
1374 1.4477097175e+00 4.0272796164e-01 -1.6695272692e+00 6.5405841834e-02 -2.7667526030e-01 -4.1373751090e-01
1375 -3.6018644025e-01 3.3720613190e-01 -1.2906472103e+00 8.7564667345e-01 -5.5475199592e-03 3.9393616461e-01
1376 2.8877050478e-01 1.5796839258e-02 -8.1207009502e-01 4.2838374219e-01 2.6604158381e-01 -3.1209793148e-03
1377 -2.2669900165e+00 -3.3455121865e-01 8.8183854494e-01 -2.5644746484e-01 2.1106921442e-02 -2.8266013979e-01
1378 -4.4163378552e-01 7.3756697597e-01 2.4472746835e-01 -2.5938478595e-02 -1.2517266539e-01 -1.8050973921e-02
1379 7.3875547691e-01 -1.0398817535e-01 -5.8258920148e-01 4.3838428388e-01 -1.7732059535e-01 -2.5292202298e-03
1380 1.7922633123e-01 -8.0465484051e-01 4.0658735519e-02 -1.6497420027e-01 5.2195974561e-01 9.1756721766e-03
1381 -3.9551430290e-01 -4.8164572922e-01 1.1870269835e+00 3.4150469517e-01 -4.8307879842e-01 1.1268583398e-01
1382 -1.0139613114e+00 1.0963238510e+00 1.3464639882e-01 2.3006897098e-01 6.6960441739e-02 2.1057757297e-01
1383 -5.9851158797e-03 7.8601822788e-02 -3.4673253012e-01 1.3939510208e-01 1.4336634125e-01 -1.1270090352e-01
1384 -1.3592051833e+00 1.1410785683e+00 -2.0316525392e+00 2.6011025127e-01 -1.8713930728e-01 -1.2268107125e-01
1385 -7.3561006237e-01 -1.2503609665e-01 -9.0993851335e-01 -8.6432692841e-02 1.8198625626e-01 4.5877590068e-02
1386 -5.1588708082e-01 -1.9035836469e+00 4.8952717906e-01 -1.0809903543e-01 -2.7602941596e-01 -1.9632939554e-01
1387 1.9715144929e-01 1.1041790939e+00 -1.0558825140e+00 -1.4538486604e-01 5.8140062737e-03 -4.0311799663e-01
1388 1.1152195302e+00 -1.7785455229e+00 5.4161909883e-01 2.3058340493e-01 -2.9954330249e-01 5.2838609825e-02
1389 2.0140445838e+00 -8.0130692368e-01 -6.3670190075e-01 7.5755564544e-03 2.8773660516e-01 -1.5163047688e-01
1390 -1.3964453171e+00 -5.2676558021e-02 -6.9763176830e-01 1.7625341676e-01 -8.5589269473e-02 2.2146204678e-01
1391 4.0423011157e-01 -2.5307374784e-01 -8.0243592535e-01 -4.4655486232e-02 -2.0912144067e-02 -1.8163738683e-01
1392 8.7576051330e-01 -1.5597536133e+00 6.7943516233e-01 -1.9497356830e-01 -4.5791614045e-01 2.2901039244e-01
1393 5.4448870664e-01 1.0649830898e+00 -6.9777246046e-01 1.6725656068e-01 1.4736685116e-01 7.1819545660e-02
1394 8.1118178600e-01 1.0497595425e+00 5.1866763611e-01 8.0239123546e-02 4.2705951752e-02 5.9883281831e-02
1395 8.7880530007e-01 -7.2742857510e-01 1.0370759265e+00 -2.6553064236e-01 7.0394740894e-02 2.1788225861e-02
1396 -3.1065141642e-02 1.4356450183e+00 1.2119547983e+00 -1.2703514704e-02 -4.2347734749e-01 9.0535069751e-02
1397 -2.7700165363e-02 -1.1395481632e+00 3.6044825679e-01 -5.3584575924e-01 -4.5803519065e-02 8.8689685616e-02
1398 -2.8954818760e-01 7.7980619878e-01 1.0360812974e+00 1.9822627323e-01 -3.0410861084e-01 1.8076820923e-01
1399 -8.0346340007e-01 3.4459018251e-01 3.7412037238e-01 1.3379698441e-01 -3.9685192488e-01 2.0935524010e-01
1400 -8.4591029890e-01 -1.9021316809e-01 -5.5099006994e-01 1.0805897146e-01 1.3055009788e-01 1.0843145453e-01
1401 -4.6447780779e-01 -1.6904024091e+00 2.0291296822e+00 4.4976789867e-02 5.5292931076e-03 -1.4956481870e-01
1402 -3.6080303869e-01 -1.1101643467e-01 -1.2917421097e-01 -1.6553313317e-02 5.6657006096e-02 -1.9729291738e-01
1403 -9.8900696171e-01 -4.5549336740e-01 -3.6376053149e-02 5.3202906886e-02 1.5972819155e-01 -1.9047596971e-02
1404 4.4485256463e-01 2.0740699550e+00 5.2611358585e-01 -1.2756102631e-01 -8.4142755965e-02 -3.2183752043e-01
1405 -1.7474355438e-01 1.5622996775e+00 3.9979986587e-01 -3.3194111437e-03 -2.9341715943e-02 4.9748124259e-02
1406 7.5920762601e-01 -4.7448855996e-01 1.2619738505e+00 -1.5162161473e-01 4.8836202394e-01 5.0778550025e-02
1407 5.5035214429e-01 6.6894396477e-01 6.5532217989e-02 -2.9311392317e-01 6.7805876009e-02 4.0433899248e-01
1408 4.0162768921e-01 -3.1466122274e-01 4.0833807518e-01 3.3902832360e-01 -3.4555106464e-01 -4.8117995119e-02
1409 9.8662322221e-01 -2.1165901166e+00 1.2561701722e+00 4.2500457840e-02 -3.7042378079e-01 -8.3937140745e-02
1410 8.5986869550e-02 -7.5072449323e-01 6.9365159462e-01 -6.3031195137e-03 3.9308710905e-01 1.2246362129e-01
1411 4.4312696619e-01 1.5498344218e+00 4.9021384571e-01 1.3216653423e-02 -2.3625601032e-02 -4.0101052046e-03
1412 -4.4068756558e-01 4.5056049675e-01 -3.3407449784e-01 -1.0675088185e-01 6.8636407535e-02 -1.4297869759e-01
1413 1.2427972222e+00 5.0813689359e-01 -1.1220433140e+00 1.7350425475e-01 -1.8629913171e-01 -9.5338373042e-02
1414 -2.3805044102e+00 -1.3528887412e+00 9.0495801526e-01 -1.3644230893e-01 -7.6066663130e-02 -2.8249215559e-02
1415 -5.6212663666e-01 -8.0813726573e-01 3.0584809265e-01 6.4906843242e-02 -2.0651896955e-02 1.0116012837e-01
1416 -3.8889794252e-01 1.0935980898e+00 1.7653216494e-01 8.5227146100e-02 3.9759449282e-02 1.5963658319e-01
1417 2.2005032677e+00 1.0570569502e+00 4.0589159130e-02 -3.5112598016e-03 -2.2012068878e-01 1.6161285675e-02
1418 -5.7353455475e-01 8.6099556223e-01 1.3281007983e+00 5.7230775504e-01 -2.3443641020e-02 -7.0832978189e-02
1419 1.2282982674e-02 -1.3212774178e-01 -1.9900483138e-01 3.8576144462e-02 -2.1030411411e-01 6.4578575853e-02
1420 5.8267227714e-01 -1.1628316544e-02 -9.8237758325e-01 -2.6762179910e-01 5.1390700482e-02 -1.4229232102e-01
1421 -5.5692012126e-01 2.2840038129e-01 7.0017637500e-01 -1.1357034987e-03 -2.5186836721e-01 -4.1282015373e-02
1422 8.5006987821e-02 -8.2854507060e-01 -9.4972071450e-02 1.8674092641e-01 -1.3593596274e-01 3.8808194114e-01
1423 -4.1250521695e-01 -5.3485224798e-01 2.1494983097e+00 3.4314182900e-02 7.3307979492e-02 1.6439235613e-01
1424 -1.2370227193e+00 4.6563518354e-01 -8.1407632092e-01 1.6796092555e-02 1.8496177452e-02 3.0368591380e-01
1425 1.1833246004e+00 -2.1687910222e-01 7.7549342501e-02 -1.3932459163e-01 1.7403962431e-01 -1.3852279411e-01
1426 -1.0044044037e+00 1.3132385489e+00 7.3844977059e-01 -1.6062411906e-01 -9.3503618915e-02 6.0990551614e-02
1427 -1.3593591551e+00 -2.1294971564e-01 -4.2505010383e-02 2.1211893231e-01 -2.3157808398e-01 3.8940459452e-01
1428 7.6434573100e-01 9.2822938838e-01 -9.9208671444e-01 7.6608328599e-02 -3.6638614329e-01 -2.2920728957e-01
1429 -7.9883384781e-01 -8.0215722680e-01 8.9993132584e-01 -4.3262191869e-01 9.6740905403e-02 -6.0524431517e-01
1430 -1.8310392011e+00 6.8539105284e-01 1.1045567427e+00 1.2408992321e-01 5.8317369277e-02 6.6495539417e-02
1431 4.5993671843e-01 7.3172129891e-01 -4.5054968599e-01 3.8732385419e-01 2.0770228509e-02 -2.5341969278e-02
1432 -2.1836928781e+00 3.9007386840e-02 8.5315724990e-01 -1.7080373958e-01 -1.9858061998e-03 3.4452384906e-01
1433 -8.0079556594e-01 -1.7475027681e+00 4.6509857990e-01 -2.4490969517e-01 3.1452591626e-01 -1.3035511307e-01
1434 1.0202421026e+00 1.4209807623e-01 -2.2064554398e-02 2.5405838617e-03 7.7364299036e-02 -1.0502775788e-01
1435 -6.0354082042e-01 1.0835403459e+00 -1.8970644597e-02 -2.0142394743e-01 6.4021613634e-02 -2.9654545625e-01
1436 -2.3221504550e-01 7.4354918329e-01 7.5504295160e-01 1.9157491601e-02 -3.3544427138e-01 -1.0777064870e-02
1437 -1.4856259662e+00 -2.2532461484e-01 -9.0533081466e-02 -3.5951400878e-02 -1.0266039971e-01 2.9859997573e-02
1438 -2.5385119352e-01 5.7652422994e-02 1.8597178701e+00 2.2184227155e-01 -3.6826149716e-01 6.4588388855e-02
1439 -1.7788488287e-01 -1.5318438900e-01 3.0630839163e-01 1.0976231003e-02 -9.1537000171e-02 5.0439856806e-02
1440 -8.1564503012e-01 -2.2119127784e-01 -2.0408228279e+00 -4.5759187934e-02 -1.0945846181e-02 -7.8593521059e-02
1441 6.7307747875e-01 -9.1936079986e-01 1.2822840387e+00 -1.1474839834e-01 -1.2027535729e-01 -2.1902909553e-01
1442 7.9476861810e-01 2.3208989461e+00 2.0973128083e-01 7.3678985178e-02 8.7907498761e-02 -8.3065685568e-03
1443 8.5226127925e-01 1.5516498506e+00 5.6953934324e-01 -1.6735239572e-02 -1.1716850078e-01 2.4888193188e-01
1444 1.0314115662e+00 -1.3519130770e+00 2.9357160278e-01 6.7085751020e-02 -2.8304687026e-01 -1.5536361857e-01
1445 3.6831880093e-01 -4.7930607773e-01 3.4936953813e-01 -4.4052404066e-02 1.8735019119e-01 -9.6481596264e-02
1446 1.8966501415e+00 -1.7393912485e-01 1.2904583833e+00 -6.9436343585e-02 6.3326742005e-02 -1.4630776933e-02
1447 -2.6903472771e+00 -1.5911141424e-01 -4.3888659011e-01 6.2421981674e-01 1.2178706838e-01 1.0694313216e-01
1448 1.0517909072e+00 -2.8306740840e-01 -2.6835669927e-01 4.6886895608e-01 -6.3912656101e-02 -8.0519771616e-02
1449 8.0887424051e-01 -1.0014011318e+00 -1.1414771117e+00 -1.8825938975e-01 1.3316355358e-01 -2.6099085952e-01
1450 3.2488555421e-01 -8.3357969283e-01 -1.1244210078e+00 1.6419926942e-01 1.9461176520e-01 8.3105085083e-02
1451 5.4139468091e-01 4.5070822899e-03 -1.9626151175e+00 -4.2135248545e-02 2.5880494677e-01 -1.9127230656e-01
1452 -9.1132979534e-02 8.3935940987e-01 -1.0531815783e+00 -2.0833049422e-01 -2.5770582827e-01 -1.0913682394e-01
1453 1.1649037088e+00 -5.4040496336e-01 -7.0528217394e-01 2.7427314941e-01 5.3855107952e-01 -1.7162239436e-02
1454 5.3216108360e-01 -3.5932957825e-01 1.2527515381e+00 -1.4811150693e-01 5.8848671148e-02 3.8542704121e-02
1455 8.1242797606e-01 4.0965535124e-01 1.4382791849e+00 4.4334019547e-01 4.5331754404e-01 -1.9460001827e-02
1456 -2.3017135631e-01 -5.2750494835e-02 6.6501515834e-01 -6.0121547205e-02 -1.7258966565e-01 3.9877338451e-01
1457 1.9492820679e-01 -1.8599035213e+00 1.6098112661e+00 7.7705592479e-02 5.8683587545e-02 -3.2740320754e-02
1458 6.9177733420e-01 -2.9907510467e-01 -3.8296028538e-01 -1.9437856437e-02 -2.2189273528e-01 -6.2284684615e-02
1459 -2.4417522920e-01 -5.3582561623e-01 -1.0249599094e+00 3.2403669280e-01 3.5600803799e-01 8.5770612827e-02
1460 5.1451627564e-01 1.0218534672e-01 1.1486193012e+00 -2.5221996239e-01 1.6978355402e-02 5.0418442576e-01
1461 5.2839606202e-02 -2.0383102744e+00 2.5260588779e-01 4.4388837729e-02 -3.1572363667e-01 -1.2182767893e-01
1462 -2.8138800276e+00 2.4522817070e+00 -1.2346954301e+00 -3.2965350987e-02 -1.8548720282e-02 -2.1933855633e-01
1463 -2.5062573281e-01 7.4478678924e-01 -1.3731883365e+00 3.6039848327e-01 5.7472663209e-01 1.6165338081e-01
1464 4.6940214634e-01 8.6039897002e-01 2.7177122153e-01 5.1294762059e-02 3.7267091209e-02 -4.1641975920e-02
1465 -4.1608996469e-01 2.8437268252e+00 3.5523945264e-01 4.0259154248e-02 -1.3979704857e-01 -2.0028093972e-01
1466 -7.7454082632e-01 -1.5815323572e+00 -4.2839387919e-02 -6.2625877818e-02 1.4342825965e-02 2.8118892820e-01
1467 4.6627904948e-02 5.5082683866e-01 2.9783391267e-01 3.8944156224e-02 1.2489477429e-01 -2.8429986114e-02
1468 1.3563915896e+00 -8.8964772444e-01 8.5401994222e-01 2.5222888670e-01 -1.6243333981e-01 -1.1738342886e-01
1469 -3.8623833784e-01 -1.5468782024e-01 -2.5866317085e-01 -2.4015255191e-01 2.5038071308e-01 2.7850852335e-01
1470 -6.4562640415e-01 7.0961634265e-02 -7.4424504563e-01 3.8457379294e-01 3.6450163891e-01 1.6918735352e-01
1471 -9.8474930732e-01 1.3446178723e-01 -7.7603624528e-01 -6.5918180590e-02 -2.4579480650e-01 1.4904717552e-01
1472 -8.7914529937e-01 -6.3488491290e-01 -1.4160580430e-01 -6.6897969971e-02 -4.1904704000e-02 5.5925231856e-02
1473 -6.3474421410e-01 -1.1619050780e+00 -6.5528288667e-01 -8.7430593986e-02 -1.3313615748e-01 3.1215177478e-02
1474 9.4939031584e-01 -1.8405956126e-01 -3.9869857657e-01 -8.6832804582e-02 -6.8127446595e-03 -6.9426989021e-02
1475 -2.2062837081e-01 1.5375145333e+00 1.9806492173e+00 -2.2930829834e-01 2.8843611590e-01 -5.8948410409e-02
1476 8.0873436337e-02 -1.7514030080e+00 -7.5609161227e-01 3.3843643436e-01 3.8188697299e-01 -6.2309550345e-02
1477 -8.0863969400e-02 4.4305540872e-01 6.7317427622e-01 -3.3671912231e-01 -9.4028836976e-03 3.4556968672e-01
1478 7.7447105788e-01 -3.8673167712e-01 9.8720445764e-01 -1.0534810857e-01 -7.0596182443e-03 -6.9146705398e-02
1479 -1.3788772579e+00 -1.1276954187e+00 5.4478222721e-01 2.5167894715e-01 2.3745036879e-01 1.3245734855e-02
1480 1.3209943809e-01 -3.6330955812e-01 -2.1393671310e+00 3.7175735060e-01 4.3687761616e-01 -3.4035539086e-01
1481 -2.1831585230e-01 1.1449201525e+00 -7.9513336206e-01 2.8720711442e-01 3.6085291250e-01 -1.1183201636e-01
1482 1.2114184812e+00 -1.0251995490e+00 -1.5937996187e+00 4.0373373838e-01 2.0839523210e-01 3.0395955992e-01
1483 6.2360547977e-01 -5.0526983410e-01 -2.1768626471e-02 -5.2372235375e-02 -7.6285934662e-02 -1.8732211799e-01
1484 3.5491840227e-01 1.4725402633e+00 -1.2528036132e+00 2.5976676044e-01 -1.2081926348e-01 -4.1650439182e-04
1485 -6.3072239849e-01 2.8489614885e+00 4.7766129474e-01 3.0342953839e-01 -3.5332880638e-02 2.2234360187e-02
1486 8.8008331400e-01 -7.2751617860e-01 1.6697341345e+00 -8.7671654977e-03 1.4852017507e-01 -1.9285180783e-01
1487 -2.7631965492e-01 2.6385387479e+00 -2.7304307615e-01 -6.7859938829e-02 1.2865974849e-01 6.4484657414e-02
1488 -1.6037712190e+00 3.1844538150e-01 9.4871871507e-01 7.7512199179e-02 -2.1696387209e-02 -7.4926187373e-02
1489 2.0173983524e+00 7.0453233865e-01 3.6107566944e-01 5.4219300420e-02 1.8361502089e-01 -1.9602567796e-01
1490 8.8634648190e-01 -2.4819565020e-01 -4.6701156035e-01 -1.4726032768e-02 -1.7040623826e-01 -1.4394311970e-01
1491 -7.4843014993e-01 3.2934178168e-01 -3.3473422437e-01 1.3555498371e-01 -2.6726499130e-01 -9.6533752316e-02
1492 2.5050849341e-01 6.1548639843e-01 -1.3972780882e+00 1.2940875881e-01 -1.0535288043e-01 2.8563716715e-01
1493 6.6943720314e-01 4.2809287393e-01 -2.9688370649e-01 -5.7067856990e-01 2.1768812088e-02 1.7301796495e-01
1494 -7.9050186665e-02 1.6160291803e+00 1.1699933712e+00 -1.5936064994e-01 -3.0199250736e-01 -1.4429282718e-01
1495 1.7073094011e+00 -1.0175076798e+00 -2.4412360782e+00 -2.9678836846e-01 -1.4902261457e-01 4.7748492222e-01
1496 -3.5462278532e-01 2.4764592688e-01 6.8147027549e-01 -1.0004982396e-01 -1.4382679431e-01 -7.7631710612e-02
1497 -7.7107574001e-01 1.3072686739e-01 1.6191108106e+00 5.5332609966e-01 2.2838577087e-02 3.7966315431e-01
1498 2.9383694223e-01 1.0332873809e+00 6.2254219511e-01 -9.8225886837e-02 -1.1201954204e-01 -1.5935955675e-01
1499 5.1595030014e-01 1.7499813319e+00 1.5205093949e+00 1.0862223854e-01 1.5886847630e-01 2.9995895714e-02
1500 -8.8089622907e-01 -1.7411592711e-01 1.0130618991e+00 1.6329096384e-01 1.1445415431e-01 5.7706168857e-02
1501 1.9036780998e+00 -9.0767840811e-01 -5.3106380796e-01 1.3683051908e-01 1.0760375512e-01 6.1612061269e-02
1502 1.1442482574e-01 4.5924558293e-01 -1.1711236638e-01 2.4273443723e-01 -4.7577207706e-01 3.8365657944e-01
1503 -6.4566053829e-01 -4.6146882650e-01 -6.1964753481e-01 -7.9169883144e-02 1.8233946528e-01 -1.2409260648e-01
1504 -9.8828692517e-01 1.1269121597e+00 -4.9285936394e-01 1.8692549460e-01 -1.2419013495e-01 -1.0227457264e-02
1505 6.6874378018e-01 1.6890035493e+00 -2.5715244976e-01 -1.9573045846e-01 2.7035340518e-01 -1.3649503553e-01
1506 4.3804558071e-01 7.2172789006e-02 3.6596242758e-01 -2.2270197147e-01 7.3158066898e-02 -8.0196385008e-02
1507 -5.7186340334e-01 -1.0068076348e+00 -2.6954869807e-01 -1.5360098712e-02 2.2188454625e-01 -4.1511514755e-01
1508 -2.9363372209e-01 -8.0216208095e-01 -1.9926124624e-02 -1.0418731893e-02 -1.2394105271e-01 1.2047205808e-01
1509 -2.9206124861e-01 1.9119877322e+00 -3.5657675131e-01 1.9238944729e-01 1.2704977094e-03 1.8940040641e-01
1510 -6.2281631671e-01 6.8166035095e-01 1.2987145863e+00 7.7709858288e-02 -7.7582095925e-02 3.7826697664e-01
1511 2.6544546076e-01 -1.1565031627e-01 4.6188423754e-02 -1.2907033012e-01 -1.4731530560e-04 2.8421341808e-01
1512 -2.5028852910e-01 1.2994388322e+00 8.8136855917e-01 -1.4884272802e-01 -1.6599860688e-02 4.5260785720e-02
1513 -2.7513917885e-01 2.2452719398e+00 2.3634037602e-01 -1.5542990174e-02 -9.2087301558e-02 1.9757179341e-01
1514 1.5204574429e-01 1.6145238712e+00 8.7252607348e-01 1.3972591746e-01 1.6969179276e-02 -2.7373766675e-01
1515 -1.1337964650e+00 -5.5047865601e-01 1.8944307425e+00 5.7190098040e-02 1.0799592643e-01 3.8520534230e-02
1516 1.0433206982e+00 -3.0539944134e-01 -3.9562668481e-01 -7.7950099132e-02 3.5471649361e-01 1.5410990502e-01
1517 7.7309283608e-01 4.1148140582e-01 5.2872083449e-01 2.4619694709e-01 3.9775265874e-02 7.2783306403e-02
1518 5.7024096585e-01 1.0490282417e+00 2.2603882080e-01 -5.5351444758e-02 -2.1357167431e-01 1.0561408411e-01
1519 3.2402520980e-02 -9.4528616382e-01 -1.8279354188e+00 7.0935816605e-02 -1.8786920893e-01 1.9885197846e-02
1520 1.6288995275e-01 -8.4082965112e-01 1.4443422968e-01 1.7891434221e-01 -2.4497574384e-01 -2.9259216357e-02
1521 -1.2018608619e+00 1.3599705612e+00 -1.5484131178e+00 -1.7514392202e-01 -1.5610213837e-01 3.2692847744e-01
1522 -1.3797979797e+00 3.1768289261e-01 -1.0311744819e+00 1.4361116750e-01 -7.9041650423e-02 7.0390284017e-03
1523 -1.1315567425e+00 -1.6827496184e+00 4.9501064199e-02 1.8042792894e-01 1.7264546334e-01 -3.0874260630e-01
1524 -1.6465791100e-01 -1.4761263051e+00 2.7685912296e+00 -2.8875373364e-01 2.4557052085e-02 4.2976911921e-01
1525 -1.1334853554e+00 -3.8823711761e-01 -2.6556245336e+00 -2.9374801561e-01 4.4588345136e-02 9.0425949796e-02
1526 6.3181103722e-01 -2.3938878066e-01 -2.7726998217e+00 -1.9949136193e-01 -1.2831758990e-01 -9.3233096195e-02
1527 -1.9125206267e+00 3.3214606912e-01 1.0866904268e+00 1.3388564127e-01 -1.4136004207e-01 6.3553863799e-02
1528 8.8006990148e-01 -1.2602681143e+00 9.1487162304e-01 2.7659403615e-02 2.3951286654e-01 1.1699530770e-02
1529 -2.1951522079e+00 -1.0807424154e+00 -7.9225695870e-02 -4.1797684503e-02 -2.1005112284e-01 4.3490998252e-02
1530 -1.0074416634e+00 5.4712604613e-01 3.9495392100e-01 1.4728097138e-01 2.0439014372e-01 -2.6709881152e-01
1531 -3.0477222558e-01 -8.7832894386e-01 5.0338717925e-01 -1.9055890390e-01 4.5905240771e-02 8.3297998555e-02
1532 -4.6206778173e-01 5.7061399707e-01 1.5411036026e+00 -3.1436704860e-01 -5.0012643877e-02 3.4829595620e-01
1533 2.1046928680e+00 1.3430643319e+00 -6.5586775771e-01 1.2811866633e-01 -3.5130911966e-01 9.0588318378e-02
1534 9.3473530783e-01 1.5599529798e+00 9.6564930141e-02 1.7307037754e-01 -1.3372583675e-01 -1.4698951904e-01
1535 -7.8549017151e-01 1.6056868528e+00 2.3457912746e-01 1.8651891588e-01 -2.9517666104e-01 9.6392539930e-02
1536 3.3940162327e-01 6.5655128841e-01 -2.5506200098e-01 -1.4862027278e-01 2.0432416899e-01 -2.8167685592e-01
1537 -5.6696372229e-01 -1.0306794816e+00 1.3698883222e-01 -8.2031152660e-02 2.3295793474e-01 8.5037310163e-02
1538 -2.7971479526e+00 -1.9800707585e+00 -6.3405244451e-01 1.1147437914e-01 1.2100091813e-01 7.4149228579e-02
1539 -5.9396412673e-01 -6.0658595088e-01 7.6942084625e-01 -5.5770251377e-02 3.8877707392e-03 1.3212809218e-02
1540 -6.5493641936e-01 1.4399580516e+00 1.1308465095e+00 3.3836376438e-01 8.5107442874e-02 -4.1756423631e-02
1541 1.1622228572e+00 5.3814832394e-01 1.3090078953e+00 8.7305804188e-02 4.1180237405e-01 1.1483571598e-01
1542 -1.6775734840e+00 1.0251420769e+00 6.5793674842e-01 -2.2203357769e-01 -1.4339995747e-01 1.6735522466e-03
1543 4.3045969151e-01 -8.6129726969e-01 1.5004593611e+00 -1.1625149016e-01 5.9484776315e-03 1.5923498173e-02
1544 -5.5812065691e-01 -1.3620384699e+00 -1.6261570262e-01 -1.7166777399e-01 2.8698671940e-01 -2.4714285136e-01
1545 -4.7002055443e-01 -4.2576832988e-01 -1.4092286142e+00 1.9392151228e-01 1.3500185734e-01 5.9451009816e-02
1546 -2.7359975442e+00 -5.2609484216e-01 -4.3982118501e-01 -1.5881369290e-01 -1.6948813382e-01 -2.1866253309e-01
1547 -1.6584675161e-01 1.0022125111e+00 -2.8237749847e-01 1.2152424057e-01 7.2897284089e-02 1.1714411156e-02
1548 -1.2139121565e-01 2.8552232605e-01 6.1625138256e-01 5.3898385210e-01 -4.7583001774e-01 -2.9116743116e-01
1549 1.3150164794e+00 4.0543611750e-01 -8.8369428973e-01 -9.7219668154e-02 -2.4968470637e-01 -2.1480821989e-01
1550 -6.2910645548e-02 9.0226754761e-01 6.4673145110e-01 -1.8311948481e-01 2.5188749468e-02 1.0749781704e-02
1551 1.8692632476e+00 -1.6633418894e+00 -1.1655694479e+00 -1.9895227885e-01 -1.5293643348e-01 1.4552581249e-01
1552 -1.1220088318e+00 -1.0033432370e-01 -2.2298130628e+00 -1.0816600913e-01 -2.3568454984e-01 -2.8270100626e-01
1553 -1.0919796112e+00 4.3468318283e-01 -5.4540544441e-01 2.5727920892e-01 -3.2946220990e-01 2.4945168979e-01
1554 1.0821792506e+00 2.0920472059e+00 8.1953801640e-01 -2.9315678233e-01 -8.2263158074e-02 3.7432580989e-01
1555 -4.8120186611e-02 7.2956894882e-01 -6.6071919437e-01 -1.4413547057e-01 1.6032462136e-01 -5.4089547288e-02
1556 1.6643155284e-01 1.2213680872e+00 8.6688268660e-01 -9.2789563673e-02 -3.4536472992e-01 1.2005614233e-01
1557 1.2819952356e+00 7.6160173964e-01 1.0317349731e+00 -1.4524016804e-02 -1.1546923346e-01 -1.3157430981e-01
1558 -9.1872090825e-01 6.4639521890e-01 -1.7168645286e+00 -2.7395120062e-01 -1.4009952260e-01 -5.7751925347e-02
1559 2.0163269933e+00 2.3977472659e+00 -1.3487691101e+00 1.4914127817e-01 1.6516190466e-01 3.0664673531e-01
1560 6.5319704803e-01 5.5600549478e-01 -1.3354336848e-01 3.5743406856e-02 1.2736745326e-01 -8.4306226523e-02
1561 1.5525103473e-01 9.5436691503e-01 3.0442863227e-01 -4.1983428669e-02 -8.8270454063e-03 -3.7181089578e-01
1562 -9.5808766192e-01 1.0397183817e+00 1.9199968432e-01 -4.8340017463e-02 1.5153932821e-02 1.7455824201e-01
1563 -9.8361641592e-01 -5.0395042117e-01 1.5117067202e+00 -2.8535104308e-02 1.8711313721e-01 -4.6753151350e-01
1564 1.4818045948e+00 -5.1408535078e-01 1.3886660628e+00 9.5421992507e-03 -2.9424440303e-01 1.8710665263e-01
1565 -3.4819532986e-01 2.2388021827e-01 2.1297695242e-01 -8.3480063377e-02 1.8642744761e-02 4.4432066018e-01
1566 7.5979472277e-01 -2.0372842168e+00 -3.2870473393e-01 -1.6950294549e-01 1.5880315735e-01 2.0518108921e-01
1567 7.1899019557e-01 -5.1181947952e-01 -6.0736185246e-01 -2.0064534643e-02 -2.9788428177e-01 1.1442616465e-01
1568 4.0003795614e-03 2.0477476522e-01 -2.1578994598e+00 7.4081517252e-02 -3.0940637922e-01 1.4209852244e-01
1569 3.3870576588e-01 1.1940572598e-01 -4.8019134982e-01 -6.7575538874e-02 1.2319003432e-01 -1.1382598719e-01
1570 -6.5349214995e-01 -1.5063699115e-01 3.6246833327e-01 2.2309375087e-01 -2.7521994630e-01 1.2236418608e-01
1571 -7.8941569669e-01 -1.0248940443e-01 -9.6197375005e-01 3.4303690950e-01 -3.0115389361e-01 1.3064321670e-01
1572 -3.9686650425e-01 5.6211818701e-01 1.5505775785e+00 1.1876150897e-01 2.0637863820e-02 2.4060418955e-01
1573 -1.6103275329e+00 8.7616708386e-01 -7.2835672209e-01 -6.4686732729e-02 9.9502777369e-02 -2.1742162840e-01
1574 1.3590516151e+00 4.3762979741e-01 8.6413268883e-01 -2.8441145045e-02 1.0137650310e-01 6.2773963520e-02
1575 1.4282980396e+00 -4.6695681083e-01 1.6680436215e-01 2.5758481108e-02 -1.4833444847e-02 -2.8240555772e-01
1576 1.2060002232e+00 -1.9672996174e+00 1.9674940915e-01 1.1194215727e-01 1.4783657173e-02 1.2199231596e-01
1577 1.6907221204e+00 -4.9454385067e-01 1.9631257447e-01 9.5045820283e-03 1.2817871973e-01 1.9655854916e-01
1578 -7.6391641403e-01 -2.0148459674e+00 1.5477290506e-03 -3.1303949513e-01 1.1230729359e-01 -2.1931232970e-01
1579 -1.0253275242e+00 -7.1332866793e-01 4.0450931534e-01 -6.6347175412e-02 2.0328462552e-01 5.1822478588e-01
1580 2.5562964714e-01 -1.0218719465e+00 9.2498260008e-01 1.7914562041e-01 -3.9810481514e-01 -2.5984641658e-01
1581 2.5492213830e-01 1.3689018428e+00 4.3115751006e-01 1.1143396478e-01 -3.2461961200e-01 2.6624982627e-01
1582 -4.4841763305e-01 -2.3825971437e+00 -4.2696312754e-01 -1.8725127946e-01 1.4250463811e-01 -2.5262168190e-01
1583 1.5345035473e+00 -6.2664853753e-01 6.7267390644e-01 1.3231184939e-01 -3.6023440136e-01 -1.3351893710e-02
1584 -3.1816581729e-01 6.6988127393e-01 -3.1794953625e-01 1.1807469299e-01 -7.7321469439e-02 1.8411454980e-03
1585 -8.0087489058e-01 3.0160796537e-01 3.3198071340e-01 -8.8276551500e-02 1.7916629343e-01 2.6404592809e-01
1586 -4.7600622893e-01 1.1588079341e+00 -8.6173427401e-01 -6.2513510244e-02 4.2674699750e-02 -2.1228633264e-01
1587 8.5319822322e-01 5.2746085367e-01 -5.5921853609e-01 1.1153778685e-01 3.3160900840e-01 2.3615689030e-01
1588 -3.6594011134e-02 -8.3511008449e-01 1.4609180854e+00 -2.5606042196e-02 -5.4096718277e-02 1.4900083508e-01
1589 -4.9044903160e-01 6.0912148617e-01 -3.4730936760e-03 4.7895412505e-01 -3.6541987940e-02 -9.0285059504e-02
1590 -2.1987649174e-01 1.9227939635e-01 -6.4061562967e-01 -3.7815418313e-01 2.5372978566e-02 2.1102489732e-01
1591 5.6723865898e-01 -7.0765750349e-01 1.8551451811e+00 -1.7794652810e-01 1.5261623378e-01 8.9850463507e-02
1592 8.4458254224e-01 -1.2704418798e+00 6.5666905048e-01 -4.1399013851e-01 2.6251282556e-03 2.1918679124e-01
1593 -1.1421269204e+00 -2.1205953514e-01 -1.7191296967e+00 6.6000300166e-03 -5.2447318955e-03 2.3553777094e-02
1594 4.6251695033e-01 -1.4519010788e+00 -8.8427383321e-02 -2.1739042725e-01 4.6731593580e-02 1.1820707520e-01
1595 -8.2895513254e-01 -7.4383481912e-01 3.6923407213e-01 2.3360968724e-01 5.1316772986e-01 1.9915646526e-01
1596 -1.9053652092e+00 -3.7152200883e-01 -4.3461223353e-02 1.2818335678e-01 -1.7247333346e-01 -1.6133600977e-01
1597 -1.0455245599e+00 5.6557141562e-01 2.3400224068e-01 -6.1906832539e-02 -1.8532419277e-01 -2.2344535590e-01
1598 6.0837530588e-01 1.1064237384e+00 -3.2073763027e-01 1.5309578003e-01 -6.8731103396e-02 -9.4092400548e-03
1599 -6.4744734561e-01 5.7747322407e-01 2.1818435704e+00 -2.2495551970e-02 1.4696987640e-01 6.6183561635e-02
1600 -6.3483699727e-01 -9.3531438983e-01 -2.0291970488e-01 8.2360824793e-02 9.5144846798e-02 2.3864937143e-01
1601 2.2690994925e-02 -1.7847870579e+00 9.9251501351e-02 -3.5079795655e-01 -1.2578076294e-01 8.9413732495e-02
1602 4.8140793821e-01 1.0827140777e+00 -2.0718519932e+00 -4.9885387099e-01 1.8018868575e-01 -5.0029497825e-01
1603 -6.6077351915e-01 1.2690320402e+00 -8.9273533187e-01 -2.1349407156e-02 -1.5747423011e-02 2.2442185379e-02
1604 -2.2552939600e-01 1.4763225148e-01 6.0294898234e-01 -3.1684042143e-01 -1.3407708537e-01 2.0139955100e-01
1605 8.4236457393e-01 7.8894008752e-01 1.2985598783e+00 -1.7385058254e-01 8.4985429762e-02 -4.0514662578e-02
1606 -9.6710348295e-01 -1.8001784188e+00 -5.0043141046e-01 5.3575368759e-01 1.5513791908e-01 -8.2934521338e-02
1607 9.1214369543e-01 8.9624585453e-01 3.8114584783e-01 3.7656873664e-01 3.6531229247e-01 1.6212879989e-01
1608 3.2543065999e-01 -2.5559397241e+00 3.4325310308e-02 -3.2806176551e-01 1.4535309143e-01 1.1677374833e-01
1609 7.1779695695e-01 2.5640903319e-01 -1.7785943624e+00 2.8522544775e-01 -1.0648925169e-01 5.3854522365e-01
1610 -3.9965249383e-01 9.5028117026e-01 -8.9807393244e-01 -4.3877172065e-02 5.4364320540e-02 2.0881977745e-02
1611 -3.7852883930e-01 1.1290887539e+00 -2.2880509508e+00 1.9550044766e-01 1.8768162883e-02 -1.1867292786e-01
1612 6.4297141779e-01 -2.9388555766e-01 -8.7612823432e-01 -2.1679999799e-02 8.7058002414e-02 -2.3649637829e-02
1613 -1.4401561833e+00 -5.6080247022e-01 9.7162694164e-01 -3.4714169220e-01 -1.0390107732e-01 -8.2440622665e-02
1614 7.0893805541e-01 7.8871511589e-01 4.8192207703e-01 8.9118307367e-02 1.9674713803e-01 -6.9974247609e-03
1615 1.2706975826e+00 2.4029728361e-01 2.3937059576e+00 -1.8979488866e-01 5.3064819957e-02 -8.4333037385e-02
1616 2.4019773817e+00 -7.2813773621e-01 -1.3571475755e+00 2.1856686994e-01 1.0099952227e-01 1.2430313639e-01
1617 -1.0716235961e+00 -1.5950179622e+00 3.1027267452e-01 -9.9560537332e-02 2.5696457634e-01 3.0071276417e-02
1618 -8.3918499015e-01 -3.1149685649e-01 8.9697571462e-01 -1.3032412941e-01 1.2340853148e-02 -2.6690276992e-01
1619 -1.5003034251e-01 1.1280459067e+00 -7.9776274613e-01 -1.6313965209e-02 2.2171085829e-01 -3.5917951549e-01
1620 -1.7843855747e+00 1.6801787582e+00 -7.7912232716e-02 1.8455355758e-01 -1.9324826837e-01 -1.0485612444e-01
1621 -1.3067007551e+00 -7.6875919197e-02 5.0591023509e-01 8.3033946933e-02 -3.7061870026e-02 1.7265617185e-01
1622 -3.1754327490e-01 4.8598950961e-01 2.1123294732e-02 3.6690390713e-01 2.9166733160e-01 3.5226348211e-01
1623 -3.7470464923e-01 5.3188165135e-01 1.8142377566e-01 2.1137098134e-02 -1.5310493253e-02 -1.7111286750e-01
1624 -5.8419560059e-01 -1.5112123005e-02 -6.6379094167e-01 -1.1339001263e-01 -6.6752677777e-02 -3.2590535727e-01
1625 -1.8497694901e+00 -6.2593554371e-01 -1.4046887853e+00 -5.9609349691e-01 -1.9983929706e-01 -3.1282451892e-01
1626 -1.3118157688e+00 -1.6486162707e+00 6.9700244036e-01 2.7595755391e-01 -2.8278809633e-01 -2.3531416457e-01
1627 -5.4868072853e-02 -4.6719095622e-01 7.0744573066e-01 -1.1088226625e-01 -6.0594031381e-03 2.7091306742e-01
1628 1.6044079718e-01 5.8541014465e-01 1.6446896793e+00 -3.1479368112e-01 1.3719857234e-01 5.2466764628e-02
1629 -3.6716585812e-01 5.5775357390e-02 8.6482311881e-01 8.3168384740e-02 -2.0146616751e-01 1.5866408232e-01
1630 -1.1435583062e+00 6.0452829495e-01 1.0402399370e+00 2.2486385032e-01 7.2430811834e-01 5.0600316577e-01
1631 9.2655635787e-01 -8.3490676852e-01 -6.9565649608e-01 2.9776298810e-01 -3.7869040723e-01 3.4842199055e-02
1632 -6.5205013226e-01 -8.3348440547e-01 -2.6139161083e-01 -7.0664925469e-01 1.1821069429e-01 1.1348095121e-01
1633 -1.3037676520e+00 5.8086617163e-01 3.7768899738e-02 1.3171469106e-02 3.1257048499e-02 6.5546173891e-02
1634 5.4192207019e-01 4.5235246933e-01 -8.5776535547e-01 -1.2390241974e-01 -4.2683953399e-01 -2.3765007462e-03
1635 -1.1128583777e+00 -5.8824377817e-01 -7.6092527751e-01 7.1166925832e-02 -8.9326027504e-02 -8.1999377367e-02
1636 1.3399849715e+00 -8.0275776585e-01 -6.2698272472e-01 -1.6668449133e-01 -3.4909556972e-01 -5.3017318251e-01
1637 -1.1771569195e+00 2.4013511653e+00 3.6895280458e-02 2.6834734048e-02 -4.0002093741e-02 -1.0445947547e-01
1638 -3.0330894389e+00 -2.0417609367e-01 2.3279285351e-01 -3.1303410353e-01 5.4260134953e-01 3.3829382515e-01
1639 -1.4486341854e+00 -1.4870366694e+00 1.0314006862e-01 -1.6684425562e-01 -8.7494202695e-03 -3.8421038961e-01
1640 -6.3116692980e-01 -1.3737756840e+00 -2.9553431542e+00 2.4149612250e-01 -3.9455687310e-01 9.1890024921e-03
1641 -8.5554756293e-01 1.0129693139e+00 4.1477983564e-01 -4.9725880306e-01 1.2223441113e-01 1.2242584816e-01
1642 6.8791060414e-01 2.2530755041e-01 1.6887901658e+00 2.0446155245e-01 8.1292731931e-02 -2.4835250963e-02
1643 -5.7942657638e-01 6.3168742998e-01 -9.5322228642e-01 -1.5420341662e-01 3.0261667050e-01 -4.1053330670e-01
1644 2.0292928561e+00 1.0198717654e+00 1.1048838507e+00 -3.2643543406e-02 -1.8483041788e-01 -2.3132688462e-01
1645 6.8020568391e-01 1.2757909646e+00 -5.0259187753e-01 5.0672304626e-01 2.9109290156e-01 2.7705807273e-01
1646 -7.3656181341e-01 -4.8107588051e-02 1.1365738411e+00 -1.6621121507e-02 1.9010765344e-02 3.8373827910e-02
1647 8.6290418665e-01 -3.9383716510e-01 -8.5197763986e-02 -8.0313469454e-02 -6.9714576468e-02 -1.3924190991e-02
1648 1.9254746243e-01 -1.1063000297e-02 -3.9385199619e-01 1.7250115921e-02 8.0459223635e-02 -2.4207631497e-01
1649 -1.2800998379e+00 -4.2536420094e-01 4.0962000412e-01 -1.3232451935e-02 1.4086671325e-01 4.8634472036e-01
1650 -1.2152673512e+00 6.8818466579e-01 -7.2562647957e-01 2.0101983618e-03 -3.1241679030e-02 -1.2947744652e-01
1651 -1.0739715667e+00 8.9042008754e-01 -1.5019319469e-01 -1.4105513556e-01 -2.3672362496e-01 -2.7945315289e-02
1652 -6.1001097643e-01 -4.3097211046e-01 6.4356472738e-01 4.4166651472e-02 -1.8130808183e-01 -6.8787279297e-03
1653 1.7204068453e+00 -3.8246153663e-01 -1.5918158271e+00 -3.6401458774e-01 4.0250800221e-02 -1.7765000848e-01
1654 7.3632282724e-01 -5.2932091550e-01 9.2785186541e-01 2.9619917402e-01 4.1792848633e-01 3.1674786124e-01
1655 -1.4561343388e+00 1.9368165022e+00 8.5904577386e-01 1.6472771266e-01 -1.0969072108e-01 3.7913764706e-01
1656 4.3026725423e-01 -5.9765972404e-02 8.5375538480e-02 2.2889615193e-02 -1.2823219852e-01 2.4872910409e-01
1657 -2.7399951528e-01 -4.3890622812e-01 -1.1248268424e+00 -9.8583293056e-02 -1.7319880570e-01 4.4874668178e-02
1658 4.9212510150e-01 2.7549784520e-01 1.1320812687e+00 -2.4228563212e-02 4.0608781047e-01 -3.3885120843e-01
1659 3.9436787473e-01 1.4508163326e+00 -4.9833544743e-01 -6.1399633997e-02 6.8124998487e-02 -2.3096559779e-03
1660 3.1787746678e-02 1.0541629594e+00 1.5515654773e+00 1.0732792788e-01 3.7428087911e-01 -3.8647605228e-01
1661 -1.3434223232e+00 8.6221664474e-01 -1.3994299815e+00 -3.1920366785e-02 1.1798250465e-01 1.0497909321e-01
1662 -2.1283079048e-01 -1.7320111813e+00 5.9371557813e-01 3.3305304551e-03 1.1768243359e-01 -3.1340896881e-01
1663 1.1737860132e+00 9.6894311235e-01 5.1707665024e-01 -8.8806117824e-02 3.9052398721e-02 -4.2662148056e-02
1664 -1.0965995468e+00 2.6705450109e-01 5.3238741208e-01 -1.1020386793e-01 2.1079045735e-01 -3.8331729638e-01
1665 2.1509933749e+00 9.4831093738e-01 -2.3484928316e+00 7.9956032158e-02 -7.8139739400e-02 -3.1375407326e-01
1666 1.3172196319e+00 -3.6535148526e-02 -2.2450032105e+00 -1.2589880181e-01 4.3501587141e-02 -5.2605457600e-02
1667 1.1291569715e+00 -9.4885985146e-01 -9.4339498007e-01 3.4869163758e-01 1.6505687341e-01 1.5614623543e-01
1668 -1.7674563614e+00 -8.2359484871e-01 -1.0804181003e+00 -2.8385477373e-02 1.2639589076e-01 -4.4098240953e-03
1669 1.8916548025e+00 -4.6634618906e-01 -5.0883851918e-01 -2.4027455772e-01 1.6990054853e-02 1.8043024288e-01
1670 -1.6970458539e-01 -6.0656389842e-01 8.3883409830e-01 -1.6169921839e-01 6.6101198199e-02 -2.4250845827e-01
1671 -5.0791688917e-01 -5.3308309060e-01 1.6552661938e+00 1.2324264122e-01 -1.6962545378e-01 -2.3219672183e-03
1672 1.8250511882e+00 1.4902779627e-01 6.5565711086e-01 2.3603109348e-01 -5.1327478643e-02 -2.0783099890e-01
1673 1.1773221547e+00 1.0903250881e+00 9.5066315089e-01 -3.3917825680e-01 1.0013046945e-01 1.4134100745e-01
1674 -1.1479416558e+00 -2.6807655628e-01 2.7820981308e-01 1.8084906587e-02 1.4316089665e-01 -1.9067259255e-03
1675 -5.3258388417e-01 -1.3085277825e+00 5.4616589610e-01 1.2802958368e-01 -3.7570342762e-01 1.2839972569e-01
1676 5.3701360266e-01 -4.8720461739e-01 1.4151028408e+00 1.3916393934e-01 1.7776114584e-02 -1.3389985459e-01
1677 -2.4961296297e+00 5.1860070013e-01 -1.1587010245e+00 1.7508165666e-02 3.7031558686e-01 5.2436510492e-02
1678 -1.2858671817e+00 -3.2212581052e-01 -8.1834902333e-04 -3.6180065952e-02 -1.2715145363e-02 1.9184946475e-01
1679 -1.6415990310e+00 7.5489547698e-01 -6.6877906712e-02 9.0260017565e-02 1.1464435456e-01 -2.2342683049e-01
1680 -1.2441860306e+00 1.5831424223e+00 -4.6270592267e-01 -1.3533291818e-02 -6.8948570175e-02 -2.0950296203e-02
1681 7.3330463771e-01 5.6642444822e-01 1.4063085555e-02 -4.1311411806e-02 6.5837756297e-02 5.8194325590e-02
1682 -2.1093720703e+00 -4.2608485084e-01 -1.2319535994e+00 -8.7853245460e-02 -5.8041608067e-02 -1.0813501357e-01
1683 1.8795406254e-02 7.5272680726e-01 -1.3219272984e-01 -2.4476005904e-01 8.6217080158e-02 -3.4225961355e-01
1684 -5.6828215812e-01 1.6042399327e-01 -6.0643223243e-01 1.8877850370e-01 -2.6508372454e-02 -1.5437296663e-01
1685 2.4112825808e-01 1.6859216405e-01 -4.2661022970e-01 2.4086612093e-01 9.3912811392e-02 -4.7068326918e-02
1686 -1.2790793997e+00 -8.1779021473e-01 3.2890570041e-01 -5.0510967504e-02 2.1920153185e-01 -4.9549900322e-02
1687 -1.2211842652e-01 1.4441315149e+00 -1.2993989798e+00 2.2345557798e-01 -1.0942143847e-01 -6.7723501787e-02
1688 1.5233536675e+00 -5.4843507432e-01 -4.2398171644e-01 1.0721468015e-01 -2.7418976511e-01 9.5683893610e-02
1689 2.5046872641e-01 -4.5423849129e-01 1.9082508621e+00 -2.4454628530e-01 2.3701152907e-01 -3.4642003810e-04
1690 -1.9815863420e-01 1.6450516127e-01 -4.1661607525e-01 4.7614014914e-02 -1.9783494622e-02 1.5138386610e-01
1691 3.2885539589e-01 1.5270521444e+00 -5.1686565290e-01 -1.8059624422e-01 -2.0278322525e-01 -3.3941807602e-01
1692 6.9506200956e-01 4.5225058915e-01 -1.0261192913e+00 -2.8393840761e-01 -2.0797036246e-01 -1.2354278018e-01
1693 -1.3378676718e+00 3.8611960936e-01 -5.3372047469e-01 4.9753537119e-02 -6.8878692501e-02 -3.7165487607e-02
1694 6.7099008710e-01 -2.2278060718e+00 1.1875149590e-01 -1.9847764207e-01 4.7603288213e-02 -1.4884639785e-01
1695 -1.6692730460e+00 1.0011321947e+00 2.1266728573e+00 1.9554054760e-01 5.5024125215e-02 1.0733855902e-01
1696 -6.8518527351e-01 -1.5756624073e-01 2.8124865741e-02 3.4600050368e-02 6.8098337009e-03 1.3042975701e-01
1697 -1.0478517839e+00 -3.2077061778e-01 -6.9876011741e-01 8.1794208754e-03 1.2890641667e-01 -5.0803315582e-02
1698 1.7275081888e+00 -2.3463510612e+00 1.6746319418e+00 4.9624693264e-01 1.3532743425e-01 -2.4433975091e-01
1699 -4.0260959932e-01 6.2244976607e-01 4.8840794860e-01 -1.3831282114e-02 -1.0113264773e-01 5.4969656681e-02
1700 -5.1828278583e-01 7.5685908554e-02 -4.4973024869e-01 -3.3190592478e-01 1.2361661849e-01 1.9570515385e-01
1701 1.0886723953e+00 1.2246739806e+00 4.6538360696e-01 -3.4964678542e-01 3.6650453382e-01 5.4344899845e-01
1702 -9.4554656177e-02 6.7574371305e-01 -8.4975796952e-01 -3.0927310984e-02 -2.6207194180e-02 -6.8785246220e-02
1703 -5.2386912109e-01 3.9125731801e-01 -1.5674403318e-01 -1.7220475374e-01 1.2229941485e-01 4.9206576948e-02
1704 -2.1333903787e-01 -9.0881584272e-01 -1.0482864002e+00 3.5642039355e-01 8.7864675991e-02 1.0754058901e-01
1705 8.6836747475e-01 -1.2210983839e+00 6.4608411466e-01 5.6841917934e-02 5.2639843540e-02 2.1618329271e-01
1706 6.6370205426e-01 -1.1333127151e-01 -9.6640643697e-01 1.9966345535e-01 -7.3998805303e-02 -5.0153121690e-02
1707 -7.2115597342e-01 1.2718587692e+00 -2.6765994492e+00 8.5281445939e-03 1.8932383576e-01 1.6906957457e-01
1708 -2.0153088648e-01 1.5451582806e+00 9.8317275494e-02 1.0343925066e-01 -3.6200983460e-01 -2.2194071277e-01
1709 -2.2449745083e+00 1.6747159692e+00 -4.1414087466e-01 2.9042984830e-01 1.0046310453e-01 8.1309393150e-02
1710 1.1125254956e+00 1.5490235022e+00 -1.3826249003e+00 -2.5457147552e-01 -1.4679180286e-01 -3.3074013465e-01
1711 3.0231477601e-01 9.6452504676e-01 7.9731723287e-01 -1.2487006438e-01 -6.0221990749e-03 -5.1995323753e-02
1712 -9.5706249500e-01 5.0635382201e-01 -1.5841658271e-02 -2.9916111039e-01 2.3787790214e-02 -1.8812637784e-02
1713 8.2382038282e-01 4.7144253102e-01 -8.8403611493e-01 2.7723351009e-01 -7.4751334483e-03 -2.0057182270e-01
1714 -3.1585334431e-01 -6.5235276453e-01 -2.1082560241e+00 -6.0800130319e-02 -1.6409255501e-01 2.3304002356e-01
1715 -1.5154553498e+00 -5.2632984161e-02 -8.3254324057e-02 -9.3088251725e-02 -2.2115740457e-01 9.1041050591e-02
1716 -9.8046649805e-01 2.2908387862e+00 2.6885651120e-01 -3.0833817773e-01 1.6592851802e-01 -9.5713901651e-02
1717 4.2321499874e-01 -1.0455051753e+00 -6.8903717222e-01 -4.0668572855e-02 1.6452740438e-01 -2.0874031832e-01
1718 -1.0874775453e-01 -2.1306157560e+00 -2.6413072883e-01 1.6532448169e-01 3.7623538879e-01 1.9200227985e-01
1719 5.8325936077e-01 -5.5020932270e-01 -8.1918634512e-02 4.5892815239e-02 5.1847437194e-01 1.3893032987e-02
1720 -2.7321021283e-01 1.6633676032e+00 -1.5103375262e+00 -1.7912264313e-01 -3.3277215960e-02 -1.1324237716e-01
1721 3.8070231351e-01 -6.0341579785e-01 -6.8617749587e-01 4.0367621342e-02 4.9527536849e-02 3.0264689847e-02
1722 -2.4621840094e-01 2.1657964367e+00 -1.4477866999e+00 -2.6144895738e-01 -9.2995149430e-02 -5.8012510728e-03
1723 6.2315409539e-02 1.0801823001e+00 1.6709058565e-01 -5.8498436001e-02 -8.9257562927e-02 1.7761942783e-01
1724 -1.1960674244e+00 -1.5758502619e+00 4.7999718290e-01 7.9483026461e-02 -9.1075828894e-02 -1.3248095095e-01
1725 5.4725335076e-01 -4.6120266525e-01 1.5347579030e+00 -1.5999584722e-01 1.7437897680e-01 9.0359362181e-02
1726 -1.4552875266e+00 4.4627811698e-01 -5.4421216677e-01 4.7520384472e-01 2.0084660141e-01 -1.5924219444e-01
1727 -6.0863057931e-01 -5.6937910403e-01 1.6231434343e+00 7.3363088578e-02 7.2787469432e-02 1.0151426272e-01
1728 -3.9584083519e-01 -1.0388101926e+00 -9.9823825974e-01 1.0134003040e-01 -1.4673089522e-01 2.4353812333e-01
1729 -8.4755643590e-01 -2.2718076077e-01 -2.4417637632e+00 -3.7021278903e-01 1.6135763029e-02 -1.0361704968e-01
1730 -3.3233482485e-01 7.1826053526e-01 2.0892022414e-01 -3.4202134266e-01 8.7867128332e-02 -9.7650842347e-02
1731 -1.7464253999e+00 -4.0965968135e-01 1.4512184038e-01 1.1535662798e-03 -7.4917030614e-02 6.0916226501e-03
1732 -1.5414313115e-01 1.8543002773e-01 -2.2281002145e-01 -8.1873787104e-02 2.4284948405e-01 -9.9688913095e-02
1733 1.7129825135e+00 2.4353543098e-02 -4.6959304013e-02 -1.9520453327e-01 1.6199115875e-01 5.2068856545e-02
1734 -9.1920984679e-01 1.8586840260e+00 -1.1961353005e+00 4.0999556075e-02 8.2171542989e-02 1.9111847042e-01
1735 6.8594045995e-01 -1.8264093916e+00 3.6113822469e-01 1.7569417695e-01 -8.0244288281e-02 -8.9896371155e-02
1736 -6.6057952313e-01 1.9164281575e+00 -8.6098761611e-01 -3.8725332187e-02 1.9073470465e-01 2.9763461905e-01
1737 -9.2475146286e-01 6.3625162739e-01 -8.5255765042e-01 7.2280693926e-02 -9.7261725389e-02 3.5971251031e-02
1738 -2.7643243320e+00 -3.3084212750e-01 4.9448205033e-01 -1.3370798343e-01 -1.9139390749e-01 8.4815373804e-02
1739 1.0118366511e+00 -6.0384640528e-01 6.6719186893e-01 2.0745503311e-01 1.2344204102e-01 -2.1214903997e-01
1740 -5.1595590656e-01 2.1962224659e+00 -2.0450040110e+00 1.6730806476e-01 3.1506984102e-01 -4.1458803687e-01
1741 4.6834664983e-01 9.5907866431e-01 -1.3800491511e+00 9.7032912149e-02 -1.0650849576e-02 2.4524837812e-01
1742 -1.3609647575e+00 -8.5376101261e-01 -1.2363168715e+00 -4.0033466068e-02 1.0429749776e-01 3.6083447149e-02
1743 6.3535986394e-01 -1.1942897931e+00 1.9954807083e+00 6.9821924315e-02 -1.8779589167e-02 -9.8421871239e-03
1744 -6.4361058497e-02 6.4714935856e-01 1.1967886709e+00 -3.8403944119e-02 -2.9963606510e-01 -1.2837347197e-01
1745 8.8878166919e-02 1.1000886407e+00 -1.0885088114e-01 -7.1113891511e-02 -1.2483166552e-01 1.4451422423e-01
1746 -3.0065359994e-01 -1.8076882935e+00 8.7909829269e-01 1.2934338992e-01 -6.1044002600e-02 3.1910050643e-01
1747 -5.7246676760e-01 5.2688181540e-01 -1.5577038960e-01 -1.4578742586e-01 -4.8777796674e-03 1.6356427199e-01
1748 -1.3686328272e-02 5.5584919864e-01 -1.2491352365e+00 1.4776054675e-01 -1.7505529663e-01 -2.1962837523e-02
1749 -5.7063407929e-01 3.4979883942e-01 -7.9340112650e-01 1.8653297687e-02 -2.6058896252e-01 8.0034986351e-02
1750 1.6117502799e+00 9.1180732766e-01 3.5434548474e-01 -1.1627313645e-01 -7.5246077642e-02 -8.6684780036e-03
1751 2.7379073432e-01 7.3217214748e-01 -2.1724022802e-01 3.3937376867e-01 -4.2851481379e-01 -1.8733256023e-01
1752 6.0392998449e-01 3.1102469889e-01 8.0804118412e-01 -3.4891228192e-01 2.3070420175e-01 1.6558665222e-01
1753 1.0310119398e-01 8.6895672969e-01 -1.6323673159e-01 1.4856705787e-01 -7.3762000014e-02 -9.2836067628e-02
1754 6.5360747054e-02 -1.1793837989e+00 -1.2473582279e-01 -3.1590628577e-01 2.5017142279e-01 2.5087504350e-02
1755 -1.2192075521e-01 3.3103573455e-01 3.9585701930e-01 2.7437355287e-02 -3.3832828677e-02 -9.2222118919e-02
1756 -7.7594767793e-02 4.1942137266e-01 -8.8360091358e-01 3.0208414387e-01 -1.0686870962e-01 -1.2508688244e-01
1757 9.0847274017e-01 -2.6622792992e-01 -3.0100938864e+00 -1.0369013863e-01 2.3224072270e-03 9.0264274064e-02
1758 9.1544207367e-01 1.6386429110e+00 9.3837671189e-01 -2.4891198453e-01 -8.7713293802e-02 -1.5771108550e-01
1759 7.3851739760e-01 -6.4939040270e-01 4.3409554195e-01 -2.5526916558e-01 -2.5804077595e-02 -2.2334200119e-01
1760 -1.0307891809e+00 5.9793018343e-01 4.8525080508e-02 1.5191572696e-01 -9.3394360786e-02 2.2590590337e-01
1761 2.1577500053e+00 1.0243485686e+00 1.6577701414e+00 9.0284674941e-02 7.3415347712e-02 -7.3812867051e-02
1762 2.1268484585e-01 -1.1945468910e+00 -7.2627138151e-02 1.7799816094e-01 1.4787392575e-01 7.9304922407e-02
1763 -7.1501766916e-02 -6.7638972263e-01 -5.9904442492e-01 2.1516929266e-01 4.5712447747e-02 5.2263852798e-02
1764 1.1152420740e+00 -1.3964535200e+00 -3.3661527684e-01 -5.3121349631e-02 -2.1109216203e-02 -1.4402325389e-01
1765 3.7020086905e-01 4.8437263518e-02 -1.1592216288e-01 -1.8286602116e-01 2.4283310821e-02 -4.4705374656e-01
1766 7.1324167145e-02 7.2309254134e-01 -3.0276523871e-01 -3.0834179137e-02 -3.8694548487e-02 3.3252764694e-02
1767 -3.9648682112e-01 1.9188839302e-01 -6.4084100690e-01 -4.0793286751e-02 2.6456403737e-01 3.1150733821e-01
1768 2.0885213930e+00 2.4512056005e-02 -1.1461528663e+00 2.3590149667e-02 3.5619968525e-01 -3.8030262086e-01
1769 1.7841108769e+00 7.0457645655e-01 -6.2162344904e-01 4.1479359541e-01 2.8930640185e-01 -1.1073698744e-01
1770 1.6185684226e+00 7.1069325895e-01 -1.5859328714e-01 -1.3819914512e-01 -3.6209696494e-02 -2.2543343438e-02
1771 1.0699822497e+00 -4.4423580196e-01 2.8287867232e-01 -1.2184996642e-01 8.9559455210e-03 -6.9541522773e-02
1772 1.7137656975e+00 -4.3123762242e-02 8.5654211112e-01 1.9816949821e-01 8.2307448121e-02 6.0336493714e-02
1773 -4.9306386344e-01 1.9673464644e+00 -6.4280195307e-02 -2.0146156251e-01 4.5410424242e-02 -6.5647572471e-02
1774 1.2149841510e+00 6.1200807920e-01 -1.0470940402e+00 7.0421583669e-02 -1.1663657596e-01 -1.0593445524e-01
1775 1.1640180495e+00 -4.7617561422e-01 -1.4343789238e+00 2.2859173626e-01 -1.5462142097e-02 4.3585327141e-02
1776 -1.7877976192e+00 -1.6068623671e+00 -4.7588250807e-02 -1.8349324038e-01 -1.6458857584e-01 2.9372490982e-01
1777 -4.9209009517e-01 2.2066715463e-01 2.0614085476e+00 6.7485062747e-02 -2.1193072237e-01 2.4436794506e-01
1778 2.6712171698e-01 -4.8397214663e-01 -8.7937044616e-01 2.0749145855e-01 3.6634431213e-02 9.0566669178e-02
1779 1.4960222896e+00 1.1142006531e+00 -1.1384413491e-01 -1.1423628426e-01 -3.8066278875e-02 -8.9187469838e-02
1780 1.2815828210e-02 -2.3617070401e+00 -3.4095467722e-01 1.0857542573e-01 8.1538308220e-02 3.5847382819e-01
1781 5.7373325635e-01 -5.5684404828e-02 -6.2521156549e-01 1.2390894027e-01 -9.6589597450e-03 1.3875158985e-01
1782 -1.1340013110e-02 1.9996620464e+00 8.4249220068e-01 9.1017486810e-03 -1.9598066557e-02 -2.7218022177e-02
1783 -7.5093943574e-01 -3.6236948890e-01 1.2542657408e+00 1.2763570828e-02 -3.2208660120e-02 -4.9255155374e-04
1784 1.8191066736e+00 -3.1330631068e-01 -1.2925008223e+00 -3.9037229339e-01 1.0453832582e-01 -4.4697365522e-02
1785 5.4716470404e-02 -1.1966086283e+00 2.9180886536e-01 -8.2937793826e-03 -8.5113712967e-03 -5.9131290015e-02
1786 3.1315648419e-01 -2.2803614340e-02 6.8275835582e-01 4.2373124301e-02 -1.1986948420e-01 -1.2254384251e-01
1787 -4.1030781816e-01 -2.9660059805e-01 -9.0226679755e-01 1.8537273362e-01 1.6586109789e-01 6.8174571516e-02
1788 -1.1231306858e+00 8.0335477900e-01 2.9854602763e-01 9.7244515035e-02 -1.7112572868e-01 2.6380384382e-01
1789 7.6512858055e-01 -1.4750358192e+00 -1.7704189668e+00 3.3000830286e-02 1.6133945702e-02 -1.0852687760e-01
1790 1.0640405380e+00 -5.5711266603e-01 -3.2903806710e-01 1.9135412028e-02 1.3649949746e-01 5.8798638678e-02
1791 -9.8467877017e-01 2.6708973110e+00 3.0574298615e-01 2.3734717671e-01 -3.4654525107e-02 8.0989265948e-02
1792 1.0864538334e+00 -3.5898022790e-01 -1.0608892419e+00 1.0362531036e-01 -6.7629144950e-02 4.7991092413e-01
1793 3.4682811935e-01 -1.0321437043e+00 -6.5817157898e-01 2.1412916206e-01 -4.9251715049e-01 -1.9532799333e-02
1794 3.5890964525e-01 7.1714708739e-01 -1.3783696612e+00 2.2890117007e-01 2.4973958643e-01 1.5468014514e-01
1795 6.2622666809e-01 -6.1033313854e-01 -2.0129049452e-01 1.6515019812e-01 1.2300088779e-01 6.6932350117e-02
1796 -5.2572756264e-01 -2.7714069166e-01 -1.2242568546e+00 2.2145663794e-01 -9.1932745031e-02 2.5352773012e-01
1797 -9.1246256596e-01 -3.2501086335e-01 7.9585797054e-01 1.2734295487e-02 4.4187565635e-03 -2.7845609140e-02
1798 5.2521403766e-01 1.0167698229e+00 7.9140606016e-01 -1.9034217895e-01 1.3739830898e-01 -2.7196665991e-02
1799 -6.3494526522e-01 -1.1930316405e+00 -1.2650013371e+00 -4.3362531339e-03 2.5515443141e-01 1.3186946527e-01
1800 6.9458098556e-02 -2.0744465502e-01 5.8854856133e-01 5.1051402550e-03 6.4740230305e-02 -1.1406800643e-01
1801 -8.8657366951e-01 6.8838049874e-01 -2.3997181158e-01 -5.7648861971e-01 -4.3449868497e-02 -5.8481770010e-02
1802 2.1181632751e+00 -1.0934925105e+00 4.0471471539e-01 7.1279917775e-02 8.9768095997e-02 2.7215737711e-01
1803 3.4702560394e-01 9.0492870366e-01 -3.8579149373e-01 -1.9812524070e-01 1.0453419182e-01 -5.3327665720e-02
1804 -2.3297370920e-01 4.6333014805e-01 -1.2036793471e+00 -2.3303307264e-01 -6.8850690218e-02 3.2534033213e-01
1805 1.1560953318e+00 -8.6610539399e-02 -4.3300548704e-01 1.9472368796e-01 -2.5891440027e-01 1.8900766671e-01
1806 -9.6089704070e-01 2.6042371044e+00 -8.9296579106e-01 1.2932443602e-01 -1.2455983413e-01 5.6035087575e-02
1807 9.4754742556e-01 1.7826326966e+00 9.6454976735e-01 -2.5679118641e-02 1.9531880109e-02 -1.9916186990e-02
1808 8.3738677725e-01 1.5090076552e+00 -6.8288088969e-01 -6.9151501963e-02 -1.5233817862e-01 1.9638499317e-01
1809 8.9212395919e-01 6.6164523507e-02 -1.2211573000e+00 1.0644916643e-01 -2.4213726705e-02 -6.9412834262e-04
1810 4.8002005379e-02 6.4307551088e-02 -3.7226931400e-01 8.3143437266e-02 9.2294508415e-03 2.6455179947e-02
1811 9.7597296119e-01 -1.4459614452e+00 1.7316104759e+00 1.3474525950e-01 -2.0884419460e-01 -3.2238807345e-01
1812 -1.1110184845e+00 -1.9292624058e-01 -1.3043836367e+00 1.5606553258e-01 2.4762249641e-01 -2.9432543190e-01
1813 -2.7926453684e+00 -2.4283196546e-01 -1.4706787300e+00 -6.2436458709e-02 2.1937404685e-02 8.6406628127e-02
1814 2.2929237678e+00 1.0525597483e+00 1.2315804380e+00 1.8790276320e-01 -3.0593144109e-01 -1.6515041680e-02
1815 -4.5017285772e-01 8.6119265596e-01 1.8207654518e+00 3.9834203230e-01 -6.8759635860e-02 3.2229889685e-01
1816 2.5306275247e-01 -2.0992119658e+00 -7.4114641808e-01 1.5822880004e-01 4.6399092035e-02 6.8604738387e-02
1817 1.7905673165e-01 -8.4452239889e-01 -1.1936465794e+00 1.3159048483e-01 -3.4266730122e-02 2.8757307911e-02
1818 1.5851802837e-01 8.3482533256e-01 1.6754864651e+00 -4.9462466926e-02 -5.9174027232e-02 -1.6798690700e-01
1819 9.3527022153e-02 -2.0062466440e+00 6.9357004789e-01 -1.7561493375e-01 -7.0092101555e-02 9.6337999369e-02
1820 1.0657072882e+00 -2.7553173028e-01 1.9672003403e+00 -1.5666164091e-02 -2.6263957991e-01 -4.0284611518e-02
1821 8.4360066801e-01 -5.8020012570e-01 1.3219721264e+00 3.2237995657e-02 2.5749378853e-01 -1.6626321977e-01
1822 7.1411193300e-01 -3.8093188347e-01 -1.4755309874e+00 -2.4954356935e-02 6.8296532713e-01 1.9119102303e-02
1823 -8.2415928180e-01 1.3543177902e-01 -5.4283119676e-02 5.4543877862e-02 -1.1007154867e-01 2.6220653594e-01
1824 -5.4115734526e-01 -6.2817254633e-01 -7.3882192843e-01 -2.0613436176e-01 1.2682230346e-01 -2.5901052921e-01
1825 6.0107811678e-01 9.5431337401e-01 -1.6342405842e+00 -3.9238226335e-01 -1.4002569762e-01 -1.2103547013e-01
1826 -3.9906666561e-01 -1.6224792526e+00 -1.4905324462e+00 -2.5772996599e-02 -2.4141528228e-02 -2.4986730258e-01
1827 -1.1765317188e+00 -1.3338896980e+00 -9.5170934093e-01 2.3731638825e-01 3.4566592471e-01 6.4500045965e-02
1828 3.0763911280e-01 -1.6577627309e-02 -4.0881968599e-01 2.8412181928e-01 4.5076003548e-02 -2.6180524380e-01
1829 4.4099398083e-01 -2.2267042206e-01 -2.0354258464e-01 1.9080848014e-01 -1.1164930773e-01 -1.2480075433e-01
1830 -1.5412878642e+00 -4.3781025013e-01 -7.5808619432e-01 -4.6824559717e-02 -8.7533423678e-02 2.8386698363e-01
1831 7.9378984382e-01 1.0558873894e+00 -2.9493069103e-02 1.9556838244e-01 2.3109244917e-01 -2.4988187138e-01
1832 6.7677503463e-01 -1.1716493960e+00 -3.8436255986e-01 1.2317703567e-02 -3.4386786573e-01 -1.7863601560e-01
1833 -2.3217056682e+00 -8.1915425031e-01 8.6364608975e-01 5.7192724974e-02 1.1749160928e-02 6.0623671739e-02
1834 -2.8004593601e-01 -1.2170322646e+00 -8.3403917155e-01 2.4321255085e-01 1.4380444643e-01 1.1770041819e-01
1835 6.6189506052e-01 -2.0546789163e-01 -5.1176307609e-01 1.7022746188e-02 -5.1036331741e-02 5.5623611506e-01
1836 -2.7050263149e-01 -1.0732724401e+00 -7.6121245816e-01 -3.0828864648e-02 -2.3932308561e-01 -5.9366029155e-02
1837 -2.5287574551e-01 -1.5534306638e-01 -9.4918761327e-01 7.8237898376e-02 7.9194817644e-02 1.6092237362e-01
1838 1.0910685445e+00 -1.1113161713e-01 -9.4303470288e-01 5.0744835063e-02 3.4678907638e-01 -1.0282800350e-01
1839 -1.1927731971e+00 -1.0763719741e+00 3.9843372930e-01 1.1594616743e-01 1.1119146833e-01 3.5426639899e-02
1840 -4.8556494658e-01 1.6338233159e+00 1.6176296316e+00 -2.7899799318e-03 1.3003028482e-01 1.9464723935e-01
1841 -1.4026336158e+00 -7.5328287327e-01 -8.9649915091e-01 9.0428415029e-02 -2.3992844126e-03 -1.1099156322e-01
1842 -2.3926515926e-01 -5.7233706417e-01 3.5129569716e-01 -1.4896359983e-01 1.5070593629e-01 4.0576742580e-02
1843 -1.7692323960e+00 2.9137494928e-01 -3.1072801324e-02 -2.5400679926e-01 -5.5503241496e-01 -7.9398105949e-02
1844 -4.0404570557e-01 3.1689048306e-01 2.0058320702e-02 6.3379431460e-02 -2.6678778956e-02 1.1214101452e-02
1845 1.3183917035e+00 1.2266152414e+00 -7.3208714283e-01 -1.6323209458e-01 -1.7098430617e-01 -1.5199915177e-01
1846 -1.2403158946e-01 -5.0718942869e-01 -9.8119947972e-01 -7.8152802550e-02 1.0012064940e-01 -3.1396154779e-02
1847 5.4116356960e-01 -1.6447591225e+00 -9.1425815708e-01 -1.0739595452e-01 -2.7806424630e-01 7.5970792254e-02
1848 -3.4139557422e-01 1.5596480868e+00 -1.0434737837e+00 2.5838053584e-01 6.4066553566e-02 4.4744195049e-02
1849 -8.6492715411e-01 -1.0130356452e-01 -1.6700458576e+00 1.2401056914e-03 9.8013522160e-02 3.5251289618e-02
1850 1.6368375100e+00 -9.3083876863e-01 6.4468086718e-01 -6.0775483652e-02 -2.3934626719e-01 -8.6327944951e-02
1851 -5.1184269481e-01 -1.6779378025e+00 2.4859112951e-01 2.7400411763e-01 -7.3162152977e-02 -1.8083734459e-01
1852 -4.8808169902e-01 -1.0216629362e+00 2.6269424828e-01 -2.3933327709e-02 2.9833807545e-01 1.2793285850e-01
1853 7.2683077820e-01 1.4663756632e+00 2.9457994460e-01 1.7717220776e-01 3.4834705263e-02 -2.1671262546e-01
1854 -4.0292957678e-01 9.8367097271e-01 -4.1976857671e-01 -2.4710044256e-01 9.0138134328e-02 -1.5564509280e-01
1855 -6.1573367706e-01 3.3816874513e-01 -8.0404071784e-01 -1.7774009352e-01 1.9009761033e-01 1.8539430080e-01
1856 -3.1959453908e-01 -5.2141382668e-01 -8.2790950489e-01 -1.9612402994e-01 -2.5630160827e-01 3.0408326094e-01
1857 9.2303895460e-02 6.3143869747e-01 1.0670764906e+00 5.5470031725e-02 -1.6000908506e-01 1.9119911935e-02
1858 -1.5777133491e+00 1.0780554699e+00 -4.5241243458e-01 -1.8235499898e-02 2.1630794968e-01 1.9382981840e-01
1859 3.9780158085e-01 1.2617003563e+00 1.9005012425e+00 -2.3798029466e-01 1.6481940790e-01 -1.8837300274e-01
1860 -1.5160280478e-01 -1.7669527709e+00 -1.2085285817e-01 -1.8761851645e-01 1.7309790381e-02 8.1083556525e-02
1861 -3.9490703294e-01 4.7195509449e-01 1.0284591591e+00 5.6100298607e-01 -2.1554651369e-01 7.2817533395e-02
1862 -1.4449261801e-01 1.1437897484e+00 -2.1056997752e-01 -1.1673773656e-01 1.5761748758e-01 2.1204482201e-01
1863 -4.8827270211e-01 9.5856397417e-01 -5.8816727740e-01 -2.1289249691e-01 -3.1803321330e-02 -1.1245791370e-01
1864 -7.0710777660e-01 -1.0305052865e+00 1.5857711533e-01 7.0868714981e-03 -3.8711078732e-01 2.1657188434e-01
1865 4.8928097011e-01 -3.3567535614e-01 2.3980973367e-01 5.1871779805e-02 6.2749034621e-02 5.6132795248e-02
1866 1.7278522000e+00 -6.8721942686e-01 -9.5012408205e-01 1.2526151521e-01 -2.6621917456e-01 -1.8629091352e-01
1867 1.6992198312e-01 2.0974138456e-02 -1.5556744007e+00 -7.8042458953e-02 -3.1291300792e-01 4.1471387592e-03
1868 2.9927872383e+00 7.0242081074e-01 8.8838189422e-01 4.5494283235e-01 -9.5721059455e-02 -4.6755792515e-01
1869 1.1530449957e+00 -4.0083392425e-01 -2.5556126291e-01 1.3227266447e-02 7.4186586042e-02 -1.3031073888e-01
1870 -1.2046379889e+00 1.6023452390e+00 -1.9500512807e-01 -4.6152393893e-02 -9.0136034078e-02 -2.5456012944e-01
1871 -6.9595047560e-01 -2.5948028528e-02 1.9836646670e-01 3.6478360932e-01 -9.6113093941e-02 -1.9008708496e-01
1872 -1.6730638043e+00 1.7106088474e+00 -6.9036989936e-01 -3.3132220093e-01 1.0466661640e-01 3.7783846291e-02
1873 1.0912481473e+00 -1.4506437305e-02 9.1076417281e-01 -9.6432098206e-02 -3.3930728268e-01 -1.0319027826e-01
1874 1.4380540489e+00 2.1876038032e-01 5.2038656828e-01 -7.4362596820e-02 -5.3799702291e-02 4.4402726547e-03
1875 8.6600496476e-01 -5.8307156248e-01 -5.3600181571e-01 1.4505361611e-01 8.5556105516e-02 1.3139220740e-01
1876 1.1264145046e+00 1.9005523074e+00 1.3568247194e-01 5.8567500408e-02 -6.0862248069e-02 1.0529612129e-01
1877 2.0800210603e+00 2.4914291958e-04 1.5689089772e+00 -6.8648918572e-02 -3.6093959763e-02 6.1211404792e-03
1878 -1.4514904274e+00 5.2896316451e-02 5.9002092182e-01 -4.2996160972e-02 -3.7376009465e-02 1.5332097136e-02
1879 9.3232098661e-01 -7.3035013195e-01 4.2618480261e-01 4.8666703568e-02 3.5039169082e-02 -1.7890996298e-02
1880 -7.2746331226e-01 3.2235565914e+00 -8.2249214216e-01 2.0264271017e-01 -2.9917025369e-02 4.0061568144e-02
1881 -8.1354203753e-01 -7.0972563359e-01 9.0443585344e-02 -6.6422378213e-02 -5.2706658967e-01 3.5649564807e-01
1882 -7.1236587157e-03 -8.9224966752e-01 8.6639000296e-01 9.7367337502e-02 -4.7104595511e-02 -1.1536365628e-01
1883 -1.3259093876e+00 -4.1153901083e-01 7.4291131442e-01 1.5598196811e-02 -3.4271392955e-02 -4.2463670588e-02
1884 -2.0120938784e+00 -4.5205544493e-01 1.0342953941e-02 -1.3828499701e-01 -2.7212881301e-01 -2.9077871630e-01
1885 -3.5862039448e-01 7.1119040430e-01 -4.8893625271e-01 -3.9392048704e-01 -4.8338540186e-02 2.2774558307e-01
1886 -2.0128234617e-01 -8.7512055652e-01 1.1174161795e+00 4.7322576421e-02 3.2231318680e-02 -1.5936659730e-01
1887 -9.9884861550e-02 1.0233520405e+00 1.6117038393e+00 1.6049026080e-01 -3.9002922365e-01 -5.3002880913e-02
1888 7.7866703572e-01 3.8241829761e-01 -1.9703485105e-01 1.4738284359e-02 -2.4932307867e-01 -2.7446972232e-01
1889 -1.2408065418e+00 -7.6173078614e-01 -9.1846625289e-01 -9.4750752041e-02 -3.5996852339e-01 1.3470593198e-01
1890 1.4701180430e+00 -6.2654738298e-01 -9.9919380111e-02 2.3849850455e-01 -2.1916578858e-01 2.7130575574e-01
1891 1.5990601442e+00 -1.1360560925e+00 -4.8200060680e-01 2.0110788604e-01 3.2060386021e-01 -2.8392083032e-02
1892 5.9684260199e-01 -5.5112026559e-01 4.4118023663e-01 2.2529506436e-01 1.2423663370e-01 -1.0746701761e-01
1893 1.9144146616e+00 -4.9231353727e-01 -1.5274585210e+00 2.0732128249e-02 2.0286639269e-02 -2.7411826270e-01
1894 1.9941879336e+00 1.0332545568e+00 3.7113084566e-01 9.8572146607e-03 -5.5925923708e-02 2.1714265522e-01
1895 -3.4020731859e-01 -2.9473943027e-01 -3.0035958672e-01 3.2494341857e-01 5.7477358077e-01 1.1576242295e-01
1896 -6.0897253772e-01 -1.5092738680e-01 -8.7582858088e-01 4.1878525186e-01 -1.9794682279e-01 8.2956609442e-02
1897 -7.5786381990e-01 -3.4218128494e-01 2.6472510936e+00 -3.3069807514e-01 1.0003580607e-01 5.5615443387e-02
1898 -6.3458998208e-02 2.0667193272e+00 -3.9122917286e-01 -5.3892331326e-01 1.2243001193e-01 -1.2275837826e-01
1899 -9.7013430383e-01 6.6887281631e-02 3.2462162434e-01 1.3990047240e-01 -1.8028092889e-01 9.4183511551e-02
1900 -9.5939075717e-01 1.0110781268e+00 -1.3751762360e+00 4.9452653332e-02 1.4877781985e-02 7.8279461550e-02
1901 -1.1459756124e+00 2.2772586398e-01 -1.6222582702e+00 -3.2807507504e-02 -1.8470999233e-01 -2.7227453587e-01
1902 1.6065716456e+00 -8.4771862433e-01 9.8758332697e-01 1.5731408506e-02 -1.0073053703e-01 -7.4904665936e-02
1903 1.0120642601e+00 1.3923253296e+00 7.3523472601e-01 1.4052356069e-01 -4.0658900139e-01 2.2921922961e-01
1904 -5.2439905935e-01 -2.9687543406e-01 -1.3281801598e+00 -2.5415601590e-01 8.5250023875e-02 3.1380391331e-03
1905 8.2543986445e-01 1.4794800192e-01 -1.7439721301e-01 -3.3981860930e-02 1.3476434042e-01 2.8373639445e-02
1906 4.6354276411e-01 1.4597767422e+00 -1.7683405955e-01 1.3170867318e-01 -1.1753326106e-01 -9.5246731408e-02
1907 2.0478601181e+00 -3.8680261212e-01 -1.9179683781e-01 9.8743306711e-02 -2.1915047381e-02 1.0685465050e-01
1908 -1.1811669612e+00 -2.8454733679e+00 5.7238176182e-01 -3.6357606971e-01 -2.6158575104e-01 4.1478015172e-01
1909 1.1169592489e+00 -1.0333943985e-01 -1.2760073687e-01 -1.0512129367e-01 -3.0709220155e-02 2.9158532592e-02
1910 -1.2581574118e+00 -7.6670675242e-01 1.0687791229e-01 -1.5593030155e-01 -1.8428809302e-02 -9.1064960442e-03
1911 1.5295341224e-01 -1.1786482764e+00 -7.5421791916e-01 2.8285249732e-02 1.6752788253e-01 -2.2586288870e-01
1912 1.1551570846e+00 -8.9578038794e-01 1.6491827953e+00 2.3199758526e-02 2.4053052906e-01 -4.1331180201e-02
1913 1.0710347161e+00 -1.4515364222e+00 4.3346980075e-01 -2.3974556791e-02 -2.6746006777e-01 1.6076824930e-02
1914 5.4989353983e-01 -5.4666194356e-01 -5.8625960267e-01 2.4132141599e-02 1.1784373656e-01 7.1831906421e-02
1915 -1.3639412326e+00 1.5787100600e+00 2.6092902387e+00 -3.7337551354e-01 3.3695600535e-01 -2.7577277239e-01
1916 -2.6347100332e-01 -5.6201430375e-01 3.5932833070e-01 2.2722356888e-01 1.3817079994e-01 -1.1424076925e-01
1917 6.8712350599e-01 3.2523343999e-01 -2.5694004430e-02 5.0926352822e-02 -1.2367535844e-01 2.0218300837e-01
1918 -1.4155568426e+00 3.1070890495e-01 8.4350856300e-01 2.5130451369e-01 -2.2411058366e-03 -3.0402249631e-01
1919 -2.2565697142e+00 -9.8950757021e-01 -9.3566766739e-01 2.5962182953e-01 -2.1974135009e-02 1.6763186367e-01
1920 -9.2027967404e-01 3.7369729559e-01 5.4550159679e-01 -8.3870886314e-04 2.1854566025e-01 7.4918754149e-02
1921 2.5499455581e-01 8.2198834845e-01 5.5831261284e-01 -1.6536197191e-01 -4.5483669116e-01 1.4218157757e-01
1922 7.0878390215e-01 3.3806751809e-01 -3.2566543035e-01 2.5277709295e-02 1.1008370809e-01 4.0538813506e-02
1923 1.5295621259e+00 -1.3454268840e+00 4.2826748974e-01 2.1225374821e-01 -1.2095815642e-01 -2.3883922242e-02
1924 1.0878816382e+00 6.1531611842e-01 4.3974650334e-01 -2.2403754312e-02 -9.3177221655e-02 3.0606599432e-02
1925 -6.4798722265e-01 1.6391698563e-01 8.8551749481e-01 1.4426940441e-01 -3.6391441600e-02 1.6640288701e-01
1926 7.4355407585e-01 2.8124000016e+00 1.4878394340e+00 -2.0162492760e-01 -2.8948845960e-01 1.3878029454e-01
1927 8.1441863860e-01 1.1931937466e+00 4.5424409053e-01 7.4778770672e-02 6.1460418798e-02 6.4929018768e-02
1928 -1.1390329468e-01 2.5924825720e-01 5.7041908835e-02 -1.1110210340e-01 -8.0870085906e-03 -2.8477344191e-02
1929 -1.8075865098e+00 -6.4699076788e-01 -2.1741210519e+00 -1.2612045472e-02 7.6785397118e-03 -1.7603358817e-02
1930 1.3984922618e+00 -4.8554018993e-01 -5.7922820906e-02 7.2921656465e-02 -1.8819709084e-01 -3.3121592422e-01
1931 -1.3723200618e-01 -2.8234165539e-01 -9.3960362229e-01 -6.5329900011e-02 -1.7914721017e-01 -2.8508504694e-02
1932 -9.7505464324e-01 -1.9311477370e-01 1.1077051548e+00 3.7265123028e-01 -3.9894067381e-01 2.4285210073e-01
1933 2.9422926836e-01 -1.0434963388e+00 -9.7094494466e-01 6.2139982426e-02 9.2689331488e-02 -1.5798050733e-01
1934 8.2913439248e-02 3.8541101693e-01 -1.7132305787e+00 -6.2887635708e-02 -9.5696919494e-02 8.0972148787e-02
1935 -3.8040299802e-01 -4.3632158188e-01 1.2475267407e-01 2.7713029313e-01 -2.2200224670e-01 3.8517004635e-01
1936 -8.9620279408e-01 2.2153535513e+00 -3.4231073597e-02 -1.7808117716e-02 1.1881878697e-01 -2.4770411275e-01
1937 -1.2725595539e+00 7.0256282796e-01 -4.1343698941e-01 -6.0964202405e-02 7.3396915716e-02 2.1676646872e-02
1938 -1.2422236448e+00 -1.1896226195e+00 4.9019337827e-01 -3.3856120172e-02 -2.1222975715e-01 -4.9531138906e-01
1939 3.5820113993e-02 -1.6408250764e-01 -8.3936398326e-01 -2.4824028435e-01 4.5259889612e-01 -2.3517864892e-01
1940 3.4077643078e-01 -8.2241590659e-01 -1.5249576212e+00 1.9420299750e-01 4.1819694569e-02 2.2532517321e-01
1941 4.5165692130e-01 6.6747639021e-01 -2.3020420888e+00 2.3574817023e-01 2.0143006911e-03 -4.5438361748e-02
1942 1.3279962767e+00 2.9564855938e+00 -2.5131173861e+00 -1.3184479542e-01 1.6984297230e-01 1.5474212417e-01
1943 1.0531660827e+00 5.0605717726e-01 5.0869981221e-01 3.0212839928e-02 3.8200646922e-02 -6.1436755657e-02
1944 -1.2521024277e+00 -1.3964219158e+00 -9.0562349942e-01 -1.5356855317e-02 3.0539779782e-01 2.4650231279e-02
1945 -3.4753115160e-03 -6.6991547377e-01 1.9163702568e+00 8.1239032087e-02 1.4625230037e-01 -2.2613402433e-01
1946 -2.6929774901e-01 -1.3518687552e+00 2.7379496498e+00 2.0461361833e-01 -2.3434123958e-01 3.3995204634e-02
1947 3.5998633402e-01 5.1710399998e-01 5.5677528160e-01 -1.5599750678e-01 -2.3781788714e-02 -3.1787502293e-01
1948 7.7963647254e-01 -3.4025109759e-01 6.2488072430e-01 -4.0782468614e-01 -1.0444216529e-01 1.8013095965e-02
1949 -2.6331900371e-01 -1.9951637445e-01 -3.8838033024e-01 9.8406669736e-03 -2.7600637683e-01 -1.1681006346e-01
1950 1.2723390479e+00 1.4206247461e+00 -3.4009368533e-01 -2.8839986371e-02 9.4387960809e-02 -9.8980714932e-02
1951 3.9008781991e-01 -1.0395850358e+00 -1.2974412895e+00 -2.1025346107e-01 1.3758515772e-01 -2.5494215934e-01
1952 1.3489573909e+00 8.9011903452e-01 4.6825296492e-02 -5.2664917886e-02 6.7410765167e-02 6.6255114178e-02
1953 1.7613160622e+00 4.0952393086e-01 -1.0782506210e-01 -4.8618294272e-02 -1.0404737540e-02 8.4591496622e-03
1954 -1.0912270887e+00 -9.3923963974e-01 1.0894363870e+00 2.9273165761e-02 1.1112000177e-01 2.3213540382e-01
1955 1.9229725157e+00 -1.0231382061e+00 -5.9341880543e-01 -1.1046716225e-01 2.0874825566e-01 -3.7309675694e-01
1956 2.9623666250e-01 3.4428679984e-01 -4.9405779797e-01 -5.3169839190e-02 1.7470907126e-01 -8.2044212267e-02
1957 3.3149717930e-01 -1.9874344255e-01 1.2169091208e-01 -3.2289681809e-02 2.1136559611e-02 -1.1818550451e-02
1958 -4.5507168423e-01 2.6740336211e+00 8.3634485230e-01 -8.1428247300e-02 -8.6578721021e-02 -3.7218177647e-01
1959 -1.6007537414e-02 -5.5455257349e-01 1.4629971063e+00 2.3073849195e-01 -1.8981532020e-01 -1.1728542939e-01
1960 -8.3444606326e-01 5.9053294420e-01 -1.6006593132e-01 -2.2407738062e-01 1.8751604163e-02 -1.3691637095e-01
1961 -3.5038347416e-01 1.3099839019e+00 -6.6648609565e-01 1.3850606248e-01 8.7298481637e-02 8.5984051800e-02
1962 -5.5073637624e-01 -1.2347647602e+00 -1.0369499674e-01 1.6882988649e-01 1.7955045042e-01 2.1139280684e-01
1963 -1.8525177124e+00 -1.0828628953e+00 -5.5340374766e-01 -3.0532797069e-02 1.0483664813e-01 -3.9500572163e-02
1964 -5.8993462050e-01 -6.9053272280e-01 1.5868292696e+00 -3.2732926076e-01 2.4826601337e-01 3.6865644786e-01
1965 -5.7732165308e-01 9.0263201581e-01 -5.3010378027e-01 -3.8458787798e-01 3.0700289219e-01 3.0184407202e-02
1966 1.1452398498e+00 -1.2637419532e+00 -1.1385488444e+00 6.6140363363e-01 9.6522230900e-02 -5.1043805605e-02
1967 1.2959302869e+00 2.2875689724e-01 4.8204733632e-01 -3.1747807712e-01 3.7062949223e-01 4.8670154016e-01
1968 -5.1970055862e-02 7.8544589307e-01 -4.7092730429e-01 1.8595974715e-01 7.8354628879e-02 -5.6115144248e-02
1969 -5.7666958313e-02 1.9398457801e+00 6.6452793206e-01 3.2759635408e-01 -1.9313801944e-01 2.4960798860e-01
1970 -2.9831842329e-01 -2.0188026328e-01 -8.2820433883e-01 2.7864737176e-01 -3.8181483084e-02 -1.5009773608e-01
1971 -2.2066734338e+00 2.9295021033e-02 -5.5034014449e-01 -7.3655496562e-04 -4.1851523760e-01 8.1807878500e-02
1972 -9.0560388167e-01 4.7979653941e-01 1.2803290113e+00 -4.4998662556e-01 -2.1585718933e-01 -2.3726635614e-01
1973 -1.1873384791e+00 -1.0287819809e-01 1.0209454416e+00 2.1460624563e-01 2.3347273087e-01 1.5557922169e-01
1974 -1.1158250807e+00 -1.7684640801e+00 2.1927634299e-01 -1.7949150086e-01 -9.9811575626e-02 1.7978279631e-01
1975 6.1228165594e-01 5.9281905584e-01 5.3131369284e-01 1.8151354425e-01 -7.8202395240e-02 -9.5055714054e-02
1976 -2.2051966567e+00 6.1236911667e-01 -2.9526385778e-01 9.8941064585e-03 6.2514139927e-01 -8.1913072582e-02
1977 -1.2380479944e-03 -2.2837272059e+00 -8.6576782920e-01 -2.4635313097e-01 1.9138924011e-01 -2.2759900490e-01
1978 -3.4500049391e-01 1.7071302063e+00 -1.6058752799e-01 3.7941752358e-02 7.0954399483e-02 -3.5045148225e-01
1979 9.5835866102e-01 -6.8494129254e-01 1.5339756114e+00 -3.4025200431e-02 8.1242807477e-02 3.3978422115e-01
1980 -9.1381993346e-01 6.5811766661e-01 6.9431494553e-01 1.5576337294e-01 1.4694704589e-01 -6.4560557804e-02
1981 -7.8493908254e-01 9.1304035992e-01 5.5066694608e-01 4.1920558046e-02 -2.2016268749e-01 -1.4133716360e-01
1982 1.2976977502e+00 -7.0663279242e-01 6.2221676666e-02 3.8034945873e-01 -2.7802384540e-01 3.5559502275e-02
1983 -2.0552099315e-01 4.4265327471e-01 5.4662102113e-01 3.6687099260e-01 -3.4772444383e-01 -1.7350293185e-02
1984 4.1546811879e-02 -5.4595777791e-01 2.1130996717e-02 -2.6908894176e-01 5.8734826208e-02 2.9772495057e-01
1985 -1.0984976603e+00 -3.5488454719e-01 6.5564583710e-02 3.9259891751e-01 1.7625291050e-01 1.4578654744e-01
1986 -7.0032100302e-01 -1.7141793079e+00 8.8812425546e-01 2.0284783598e-02 1.3544224954e-01 -2.6573716135e-01
1987 8.0545346307e-01 4.1163796647e-01 1.2186764949e+00 -2.5073071793e-01 -1.0644875759e-01 -4.4502879374e-01
1988 1.2664903970e-01 -3.9633856066e-01 -2.6822619895e-01 2.3154439972e-01 -9.8941315108e-02 -2.7734582688e-01
1989 -4.0484059024e-01 7.9351202682e-01 1.0753622309e+00 9.1175912738e-02 2.6495164049e-02 2.7831247038e-01
1990 -1.6477370170e-01 -1.0078450523e+00 3.3011315977e-01 -5.7736262615e-02 2.2635407331e-01 -1.6840273299e-01
1991 4.1632048879e-01 -4.2865449341e-01 -9.3755369624e-01 -4.5305784760e-02 4.3830786254e-01 -4.1928037861e-02
1992 1.1483989100e-01 -8.6025542064e-01 1.2606331920e+00 1.0069221018e-01 3.2448696396e-01 -2.8643321419e-01
1993 -7.5060935980e-04 -7.0563750198e-01 1.1975765251e+00 6.6018441539e-02 -5.0194085612e-02 3.7692110843e-01
1994 3.9968524514e-02 -2.9312404730e-01 -6.6025842139e-01 1.2050737888e-01 1.0056887474e-01 1.3563415246e-01
1995 -6.7714127109e-01 1.0908010263e+00 1.0585352646e+00 2.6028418703e-01 4.6378341448e-03 3.6990447856e-02
1996 1.3337081095e+00 5.4579468277e-01 2.8403993844e-01 1.7263072769e-02 -1.7183293665e-01 1.6163797930e-02
1997 9.3443209478e-01 -4.2052231002e-01 -7.3501283871e-01 -1.8993095953e-01 3.5329516364e-01 1.9796829554e-01
1998 4.3159289310e-02 -4.6990331025e-01 6.3731326806e-01 1.5304911273e-01 -8.9795253897e-02 -9.7400884615e-02
1999 9.1887742470e-01 -7.8236863112e-02 -1.5731170854e+00 6.4151940815e-02 -1.6539348355e-01 -3.5386039588e-02
2000 -2.3108911948e+00 -6.8146753873e-01 -4.9137876744e-01 3.6983172606e-01 3.2811952227e-01 -1.0972355942e-02
2001 -1.6272266294e+00 1.1521637978e+00 4.6520103634e-01 -4.2148466113e-02 -6.9134989627e-02 7.4316145699e-02
2002 1.0479044565e+00 -1.8757556483e+00 -1.0209917695e+00 -2.7426589052e-01 1.4940134672e-01 6.2416739763e-02
2003 -7.6048751189e-01 -1.2464284871e+00 8.0254761265e-01 -3.3259422832e-01 3.4302840360e-01 -5.2698669250e-02

