LAMMPS data file for spherocylinder HCS (N=2003, phi=1.000000e-02, AR=2.0)

2003 atoms
2003 ellipsoids
1 atom types

0.0 64.0039130811 xlo xhi
0.0 64.0039130811 ylo yhi
0.0 64.0039130811 zlo zhi

Atoms # ellipsoid

1 1 1 7.6394400000e-01 5.0230617373e+01 3.7844117574e+01 1.8838179648e+01
2 1 1 7.6394400000e-01 2.3306284186e+01 6.2287124256e+01 1.4370435749e+01
3 1 1 7.6394400000e-01 3.0149716656e+01 1.9716706596e+00 5.7270586415e+01
4 1 1 7.6394400000e-01 2.2700846270e+01 4.1728824469e+01 2.2211177126e+01
5 1 1 7.6394400000e-01 3.5331986659e+00 1.6027168693e+01 5.3824925202e+01
6 1 1 7.6394400000e-01 3.0119447278e+01 6.2073842614e+01 5.3779976263e+01
7 1 1 7.6394400000e-01 6.1184620540e+01 5.0282598319e+01 2.3639863200e+01
8 1 1 7.6394400000e-01 5.7724706891e+01 4.5717710016e+01 2.5482385051e+01
9 1 1 7.6394400000e-01 3.1492162672e+01 1.4658327467e+01 5.9608142223e+00
10 1 1 7.6394400000e-01 4.4746824761e+01 1.1468427553e+01 3.6379002277e+01
11 1 1 7.6394400000e-01 2.9326583253e+01 4.9572778704e+01 2.2333730664e+00
12 1 1 7.6394400000e-01 3.0326842884e+00 5.8093140274e+01 9.9704249207e+00
13 1 1 7.6394400000e-01 3.9340383759e+00 8.6211130750e+00 5.7688196279e+01
14 1 1 7.6394400000e-01 4.1567779271e+01 1.8801850074e+01 3.3800804893e+01
15 1 1 7.6394400000e-01 2.9070839584e+01 4.7806025091e+01 2.2955201478e+01
16 1 1 7.6394400000e-01 6.3484567635e+01 1.4531616669e+01 5.5708054164e+01
17 1 1 7.6394400000e-01 3.4677198311e+01 5.8781460394e+00 5.6392424640e+01
18 1 1 7.6394400000e-01 4.7302545810e+01 7.2602891423e+00 2.4401380181e+01
19 1 1 7.6394400000e-01 4.1583062102e+00 3.9827199719e+01 2.3472016381e+01
20 1 1 7.6394400000e-01 1.1771106579e+01 6.3561582350e+01 3.8686873421e+01
21 1 1 7.6394400000e-01 2.4547986899e+01 9.8668558729e+00 3.8860996854e+01
22 1 1 7.6394400000e-01 5.6215266837e+00 2.6939573401e+01 3.3241146619e+00
23 1 1 7.6394400000e-01 4.5783149787e+01 3.7655413199e+01 2.8170962811e+01
24 1 1 7.6394400000e-01 4.1896534054e+01 6.3654822204e+00 1.5028252634e+01
25 1 1 7.6394400000e-01 2.3201174098e+01 4.4155687805e+01 1.7264886690e+01
26 1 1 7.6394400000e-01 4.4503460271e+01 4.9464253654e+00 2.4379700565e+01
27 1 1 7.6394400000e-01 3.0411475343e+01 1.8509652858e+01 1.4513595328e+00
28 1 1 7.6394400000e-01 6.2628829072e+01 3.0688494961e+01 3.7972989588e+01
29 1 1 7.6394400000e-01 3.7292175779e+01 1.8988209792e+01 1.8884939109e+01
30 1 1 7.6394400000e-01 4.9255487246e+01 6.6391444752e+00 5.9452320642e+01
31 1 1 7.6394400000e-01 1.2643024695e+01 9.1444877969e+00 4.6992494305e+01
32 1 1 7.6394400000e-01 6.4003607464e+00 2.0900402857e+01 5.3619002681e+01
33 1 1 7.6394400000e-01 9.9139009467e+00 3.1713082719e+01 2.0515419939e+01
34 1 1 7.6394400000e-01 1.4514036698e+01 2.7551942089e+01 1.4248117195e+01
35 1 1 7.6394400000e-01 3.8942737176e+01 1.5205244554e+01 5.1974781772e+01
36 1 1 7.6394400000e-01 9.8382225581e+00 2.3737863867e+01 5.3434094036e+01
37 1 1 7.6394400000e-01 5.2715457425e+00 5.3739703115e+01 4.5761956740e+01
38 1 1 7.6394400000e-01 1.6094880448e+01 1.1471233814e+01 4.1434215186e+01
39 1 1 7.6394400000e-01 1.8252955707e+01 6.2619357634e+01 6.5363712700e+00
40 1 1 7.6394400000e-01 6.3355875552e+01 6.1114502776e+01 3.0697875064e+01
41 1 1 7.6394400000e-01 1.0998844479e+01 4.3640628153e+01 5.6761556861e+01
42 1 1 7.6394400000e-01 1.5690360142e+01 1.7094262011e+01 6.1132642181e+01
43 1 1 7.6394400000e-01 3.5252307146e+01 2.2606704048e+01 1.8251682144e+00
44 1 1 7.6394400000e-01 3.2524856601e+01 5.1662402965e+01 1.0297848363e+01
45 1 1 7.6394400000e-01 6.3150401891e+01 1.9959880067e+01 2.9859277172e+01
46 1 1 7.6394400000e-01 4.3863606839e+00 4.6806982724e+01 5.3405854074e+01
47 1 1 7.6394400000e-01 2.2113771064e+01 5.6094680448e+01 9.9759006650e+00
48 1 1 7.6394400000e-01 2.3732937656e+00 5.1957838944e+01 4.1829597957e+00
49 1 1 7.6394400000e-01 5.6694991330e+01 4.3161669168e+01 6.2858347089e+01
50 1 1 7.6394400000e-01 5.9998584514e+01 5.0616454955e+00 4.3664075695e+01
51 1 1 7.6394400000e-01 2.4725838179e+01 3.1981476318e+01 3.4294888030e+00
52 1 1 7.6394400000e-01 1.7852315746e+01 2.5991544006e+01 4.9892811444e+01
53 1 1 7.6394400000e-01 1.7670931327e+01 1.5932912846e+01 2.3855705696e+00
54 1 1 7.6394400000e-01 2.0928887196e+01 5.6354092031e+01 1.4037247538e+00
55 1 1 7.6394400000e-01 1.9578442065e+00 1.6909831340e-01 3.8949560946e+01
56 1 1 7.6394400000e-01 5.9395723564e+01 4.8365057700e+01 6.3231245418e+01
57 1 1 7.6394400000e-01 3.5900271899e+00 7.6635267015e+00 2.0916122834e+01
58 1 1 7.6394400000e-01 4.4484283972e+00 3.4718444122e+01 2.3249150042e+01
59 1 1 7.6394400000e-01 4.6019565620e+01 4.8900348656e+01 2.0420482477e+01
60 1 1 7.6394400000e-01 8.4425265932e+00 3.9334838773e+01 2.1895969772e+01
61 1 1 7.6394400000e-01 1.9955921186e+01 1.7919257075e+01 2.5083151879e+01
62 1 1 7.6394400000e-01 5.0601298292e+01 3.1713012277e+01 1.5164388730e+01
63 1 1 7.6394400000e-01 3.4916756449e+01 9.9371168891e-01 5.6073392877e+00
64 1 1 7.6394400000e-01 2.7369474842e+01 3.9909273248e+01 3.6121922889e+01
65 1 1 7.6394400000e-01 2.7626581722e+01 2.9311419955e+01 5.8289849932e+01
66 1 1 7.6394400000e-01 3.0211466998e+01 3.0575604279e+01 4.5593229754e+01
67 1 1 7.6394400000e-01 3.5981690966e+01 5.5479186756e+00 5.9480545341e+01
68 1 1 7.6394400000e-01 3.3192253577e+01 5.0007056399e+01 3.2411914890e+01
69 1 1 7.6394400000e-01 4.0602641860e+01 2.8838720002e+01 6.0179526700e+01
70 1 1 7.6394400000e-01 1.2714707263e+01 2.1358660211e+01 5.1945146397e+01
71 1 1 7.6394400000e-01 4.1140488004e+01 2.8427954794e+01 2.5533835599e+01
72 1 1 7.6394400000e-01 4.7332705739e+00 2.7697408273e+01 5.3954797554e+00
73 1 1 7.6394400000e-01 5.9206929762e+01 2.5705184708e+00 1.9276288418e+01
74 1 1 7.6394400000e-01 6.3184362255e+01 9.0962141910e+00 8.8250802311e+00
75 1 1 7.6394400000e-01 5.9960388170e+01 4.7510099308e+00 1.0584885765e+00
76 1 1 7.6394400000e-01 2.7774202881e+01 2.7458248726e+01 1.7268460463e+01
77 1 1 7.6394400000e-01 4.8216704984e+01 2.7494508843e+00 4.7441829538e+01
78 1 1 7.6394400000e-01 1.4661647236e+01 2.7875012141e+00 5.3904705494e+01
79 1 1 7.6394400000e-01 3.4488310162e+01 3.8392803949e+00 4.5485561048e+01
80 1 1 7.6394400000e-01 2.4963272995e+01 6.3454732913e+01 3.9510447237e+01
81 1 1 7.6394400000e-01 1.6488719030e+01 5.9384374489e+01 5.1753550249e+01
82 1 1 7.6394400000e-01 1.2806802526e+01 1.5989276332e+01 3.3740636167e+01
83 1 1 7.6394400000e-01 2.4314797338e+00 2.0373275220e+00 1.8516305520e+01
84 1 1 7.6394400000e-01 4.9222576738e+01 3.5846809002e+01 4.7011392456e+01
85 1 1 7.6394400000e-01 3.3180315876e+01 5.1487477060e+01 3.7808467796e+01
86 1 1 7.6394400000e-01 5.5010372585e+01 3.5616287545e+01 5.4638351369e+01
87 1 1 7.6394400000e-01 4.4513642959e+00 2.2450457398e+01 2.5668373091e+01
88 1 1 7.6394400000e-01 2.6591181184e+01 4.1394593948e+00 4.4220373133e+01
89 1 1 7.6394400000e-01 4.2660176232e+01 6.2136041969e+01 3.6831895509e+01
90 1 1 7.6394400000e-01 2.0691776465e+01 2.1273977065e+01 4.5541382992e+01
91 1 1 7.6394400000e-01 5.9805343867e+01 6.2575029086e+01 6.3659227858e+01
92 1 1 7.6394400000e-01 5.7644817050e+01 3.8376960513e+01 5.7931753149e+01
93 1 1 7.6394400000e-01 3.3251840051e+01 1.0311439266e+01 6.2224237551e+01
94 1 1 7.6394400000e-01 8.0044973047e+00 5.3079229768e+01 4.7599390714e+01
95 1 1 7.6394400000e-01 5.0086861951e+01 3.8460490854e+01 4.4606610661e+01
96 1 1 7.6394400000e-01 1.4727279133e+01 3.7084633773e+01 3.0394665211e+01
97 1 1 7.6394400000e-01 4.4042511678e+00 1.8251157770e+01 1.1412110054e+01
98 1 1 7.6394400000e-01 3.9815751263e+01 2.4819522009e+01 1.4638788988e+01
99 1 1 7.6394400000e-01 4.3861521933e+01 6.8412686185e+00 3.3681903978e+01
100 1 1 7.6394400000e-01 1.0791192964e+01 2.2206513347e+01 5.7291763392e+01
101 1 1 7.6394400000e-01 4.4648705036e+01 5.3058697499e+01 3.9492841596e+01
102 1 1 7.6394400000e-01 4.1617415586e+01 2.7613729151e+01 5.0671919138e+01
103 1 1 7.6394400000e-01 2.3176714161e+01 6.9817665885e+00 3.0591926410e+01
104 1 1 7.6394400000e-01 6.3656444916e+01 1.2800928807e+01 5.7636779046e+01
105 1 1 7.6394400000e-01 3.9372126903e+00 1.8830089358e+01 5.1563494289e+01
106 1 1 7.6394400000e-01 3.1262373191e+01 6.9685832821e+00 4.9148851145e+00
107 1 1 7.6394400000e-01 6.3079277202e+01 4.8102285618e+01 4.4693998459e+00
108 1 1 7.6394400000e-01 3.7660731904e+01 5.8273914742e+01 3.0868745211e+01
109 1 1 7.6394400000e-01 4.8131033279e+01 5.8030065603e+01 4.6628495633e+01
110 1 1 7.6394400000e-01 5.7556109683e+01 3.0601389090e+01 2.5015339369e+00
111 1 1 7.6394400000e-01 8.0471674388e+00 2.2397211573e+01 6.2727098890e+01
112 1 1 7.6394400000e-01 4.1532897300e+01 1.3585482683e+01 5.1817879282e+01
113 1 1 7.6394400000e-01 2.4024096949e+00 6.3983888898e+01 3.3736989801e+01
114 1 1 7.6394400000e-01 6.3515603896e+01 3.6745104303e+01 7.4720479710e+00
115 1 1 7.6394400000e-01 2.3882559734e+01 4.1621170720e+01 4.4185038268e+01
116 1 1 7.6394400000e-01 4.2002280481e+01 3.2707888516e+01 3.2383296207e+01
117 1 1 7.6394400000e-01 1.8691133762e+00 4.8076363671e+01 1.8676254935e+01
118 1 1 7.6394400000e-01 5.1470867826e+01 3.9620427338e+01 6.1611251952e+01
119 1 1 7.6394400000e-01 2.2550482147e+01 4.4935951778e+01 4.3974433739e+01
120 1 1 7.6394400000e-01 3.4789025010e+01 5.8694219552e+01 3.2682886585e+01
121 1 1 7.6394400000e-01 2.2559672869e+01 3.5601832961e+01 4.5387799264e+00
122 1 1 7.6394400000e-01 4.2120718834e+01 5.9848936169e+01 5.8944897944e+01
123 1 1 7.6394400000e-01 4.7271301942e+01 2.8529262906e+01 5.0684152820e+01
124 1 1 7.6394400000e-01 1.8248707673e+01 3.5758940666e+01 5.6878968110e+01
125 1 1 7.6394400000e-01 3.5706852571e+01 5.8455046967e+01 3.3841946449e+00
126 1 1 7.6394400000e-01 1.3015877265e+01 4.2511650838e+01 1.6376852103e+01
127 1 1 7.6394400000e-01 6.8010969422e+00 3.4902103310e+01 3.1631123130e+01
128 1 1 7.6394400000e-01 5.0298779815e+01 2.9177476519e+01 3.1584439953e+01
129 1 1 7.6394400000e-01 3.6333073244e+01 3.5454041716e+01 2.2833815752e+01
130 1 1 7.6394400000e-01 2.8288472421e+01 2.3095072616e+01 1.6049176962e+00
131 1 1 7.6394400000e-01 3.0347371368e+01 8.9175918388e+00 4.0576001550e+01
132 1 1 7.6394400000e-01 2.6780277040e+01 5.8670324807e+01 5.9342132794e+01
133 1 1 7.6394400000e-01 2.2509348096e+01 3.8674448571e+00 4.5822939479e+01
134 1 1 7.6394400000e-01 5.5052593592e+01 3.1776955388e+01 3.8817509607e+01
135 1 1 7.6394400000e-01 1.9489232518e+01 1.9922514929e+01 4.1132496965e+01
136 1 1 7.6394400000e-01 3.9455505549e+01 5.6515766478e+00 2.3965420146e+01
137 1 1 7.6394400000e-01 5.2430016432e+01 3.0215518902e+01 5.1747919068e+01
138 1 1 7.6394400000e-01 6.3237940175e+00 1.9075518167e+01 2.9526199595e+01
139 1 1 7.6394400000e-01 2.6656628000e+01 1.9762148834e+01 3.3567121158e+01
140 1 1 7.6394400000e-01 4.7919089237e+01 1.6403207047e+01 4.6591773945e+01
141 1 1 7.6394400000e-01 5.1302669110e+01 2.0419111218e+01 5.3585369276e+01
142 1 1 7.6394400000e-01 2.9481219096e+01 1.2385538614e+01 3.0715916094e+01
143 1 1 7.6394400000e-01 3.4277405247e+01 4.5588113502e+01 1.0614808326e+01
144 1 1 7.6394400000e-01 5.3670497100e+01 2.8104954968e+01 6.3459357360e+01
145 1 1 7.6394400000e-01 2.2327042290e+01 1.0841255331e+01 1.2794513648e+01
146 1 1 7.6394400000e-01 2.6900313601e+01 5.3634914549e+01 1.3809509729e+01
147 1 1 7.6394400000e-01 4.5308656048e+01 3.9990808183e+01 5.7716510502e+00
148 1 1 7.6394400000e-01 3.4751450523e+01 4.6238807145e+01 1.4715733548e+01
149 1 1 7.6394400000e-01 6.1554375118e+01 4.8501136239e+01 5.6079408399e+01
150 1 1 7.6394400000e-01 6.2372975302e+01 3.9392791312e+01 9.6429581644e+00
151 1 1 7.6394400000e-01 5.2900900981e+01 9.8562398314e+00 2.8048924495e+01
152 1 1 7.6394400000e-01 5.3517900910e+01 2.9193478916e+00 1.1832719600e+01
153 1 1 7.6394400000e-01 5.8590344345e+01 4.6669661928e+01 2.8421922498e+01
154 1 1 7.6394400000e-01 4.1295469597e+01 4.5053243978e+01 5.7143395554e+01
155 1 1 7.6394400000e-01 6.3220042220e+01 3.1924605938e+01 4.8085055987e+00
156 1 1 7.6394400000e-01 1.1456947046e+01 4.9416132062e+01 4.8404204522e+01
157 1 1 7.6394400000e-01 7.5204436351e+00 1.8367108845e+01 4.0708717744e+01
158 1 1 7.6394400000e-01 7.5886770607e+00 5.2639428963e+01 3.2183813593e+01
159 1 1 7.6394400000e-01 2.4027099880e+00 1.1583516388e+01 2.1413912592e+00
160 1 1 7.6394400000e-01 1.1829926523e+01 2.2468818011e+00 5.0944710869e+00
161 1 1 7.6394400000e-01 1.1339436455e+01 3.1299670303e+01 4.0683341197e+01
162 1 1 7.6394400000e-01 1.2105719541e+01 2.3370922368e+01 2.4367274117e+01
163 1 1 7.6394400000e-01 2.0428144470e+01 4.3023048757e+01 1.6055070859e+01
164 1 1 7.6394400000e-01 3.8270665209e+01 1.4984639029e+01 2.0512084044e+01
165 1 1 7.6394400000e-01 3.3560513162e+01 5.7421989196e+01 6.2363942447e+01
166 1 1 7.6394400000e-01 2.4676939396e+01 6.0821691083e+01 4.6523721098e+01
167 1 1 7.6394400000e-01 5.6792817172e+01 2.5761226308e+01 6.0774112375e+01
168 1 1 7.6394400000e-01 4.8998197383e+01 5.9935227452e+01 4.6122347349e+01
169 1 1 7.6394400000e-01 6.1407065158e+01 1.7545599183e+01 5.5912586926e+01
170 1 1 7.6394400000e-01 1.4459368772e+01 5.7412698090e+01 4.6925215544e+01
171 1 1 7.6394400000e-01 4.4961053736e+01 9.1081834722e+00 5.8728561353e+01
172 1 1 7.6394400000e-01 1.3683308616e+01 4.1209958373e+01 5.8662284504e+01
173 1 1 7.6394400000e-01 3.1673263253e+01 2.7407044166e+01 4.5036660573e+01
174 1 1 7.6394400000e-01 3.0504889641e+01 4.7335737399e+01 2.2234231554e+01
175 1 1 7.6394400000e-01 1.2591044354e+01 6.2123372685e+01 4.0527288976e+01
176 1 1 7.6394400000e-01 4.3556119701e+00 2.0633648698e+01 2.6840377985e+01
177 1 1 7.6394400000e-01 1.6932075910e+01 3.1145140917e+01 6.2063812585e+01
178 1 1 7.6394400000e-01 3.8126740288e+01 5.4905010068e+01 2.2759106980e+01
179 1 1 7.6394400000e-01 5.1463718074e+01 9.8618240694e+00 1.9416272718e+01
180 1 1 7.6394400000e-01 5.3576219498e+01 8.7919602900e+00 8.0869947898e+00
181 1 1 7.6394400000e-01 5.5688025975e+00 3.6177033746e+01 4.5076161662e+01
182 1 1 7.6394400000e-01 2.7751403547e+01 5.4642118053e+01 6.3185233943e+01
183 1 1 7.6394400000e-01 3.9402430010e+01 6.6167382707e+00 3.5345774332e+01
184 1 1 7.6394400000e-01 1.2100961290e+01 3.0458826534e+01 8.4052628039e+00
185 1 1 7.6394400000e-01 2.4439013033e+01 3.3211856999e+00 4.4685064329e+01
186 1 1 7.6394400000e-01 5.2689856775e+01 2.9604435223e+01 1.8723476961e+01
187 1 1 7.6394400000e-01 6.3012373448e+01 1.8586699837e+01 1.4834264143e+01
188 1 1 7.6394400000e-01 5.6343843241e+01 3.5768206150e+01 5.1506478416e+01
189 1 1 7.6394400000e-01 2.8374046499e+01 1.2250154040e+01 2.3253690469e+00
190 1 1 7.6394400000e-01 1.4997085584e+01 6.8648564117e+00 4.6737125415e+01
191 1 1 7.6394400000e-01 8.0376850790e-01 1.5019425768e+01 2.8312105302e+01
192 1 1 7.6394400000e-01 4.9373926100e+01 3.1638516373e+01 2.9992990089e+01
193 1 1 7.6394400000e-01 2.6406062595e+01 2.5924677561e+01 1.7009098857e+01
194 1 1 7.6394400000e-01 3.9731099479e+01 6.1186996236e+00 1.6236766915e+01
195 1 1 7.6394400000e-01 4.1130735602e+01 4.4144802697e+01 3.9732358751e+01
196 1 1 7.6394400000e-01 2.3628425713e+01 1.6281784503e+01 3.1270942591e+01
197 1 1 7.6394400000e-01 4.5551264164e+01 2.7002761406e+01 2.9828350498e+01
198 1 1 7.6394400000e-01 5.6631343615e+01 6.2814831924e+00 4.7773812613e+01
199 1 1 7.6394400000e-01 5.9254139847e+00 5.1913991618e+01 5.3121844724e+01
200 1 1 7.6394400000e-01 1.2186043481e+01 4.4458620805e+01 1.9925049770e+01
201 1 1 7.6394400000e-01 3.6145249134e+01 5.8253984165e+00 2.3818241456e+01
202 1 1 7.6394400000e-01 9.7959202049e+00 1.9156032173e+01 4.7878890570e+01
203 1 1 7.6394400000e-01 1.8007466926e+01 4.6818121559e+01 1.0382269674e+01
204 1 1 7.6394400000e-01 2.5634272687e+01 3.7808104200e+01 2.2409096771e+01
205 1 1 7.6394400000e-01 5.2252578123e+01 3.8641838825e+01 1.2187390305e+01
206 1 1 7.6394400000e-01 9.9405453805e+00 2.7635329376e+01 5.9272608668e+01
207 1 1 7.6394400000e-01 6.6302330261e+00 4.9425617016e+01 2.2309533946e+01
208 1 1 7.6394400000e-01 4.4213160272e+01 2.0943387588e+01 5.6143362255e+01
209 1 1 7.6394400000e-01 4.7971964554e+01 7.5483492984e+00 3.8072266651e+00
210 1 1 7.6394400000e-01 6.1557521399e+01 2.9685199627e+01 2.7642625160e+01
211 1 1 7.6394400000e-01 1.3128731280e+01 3.2667378783e+01 1.9295246169e+01
212 1 1 7.6394400000e-01 5.6971910524e+01 6.0436245550e+00 8.1850937041e+00
213 1 1 7.6394400000e-01 2.6002522195e+01 5.4765099941e+01 3.1852438596e+01
214 1 1 7.6394400000e-01 1.1668193626e+01 5.2408071706e+01 1.1661820426e+01
215 1 1 7.6394400000e-01 5.2157803844e+01 3.9373835248e+01 2.9717451533e+01
216 1 1 7.6394400000e-01 2.2379269350e+00 2.2699385468e+01 3.9877333602e+01
217 1 1 7.6394400000e-01 5.5401221285e+01 2.4626623183e+01 2.1845956465e+01
218 1 1 7.6394400000e-01 2.4459144740e+01 6.1747352441e+01 3.0455403199e+01
219 1 1 7.6394400000e-01 3.3325924412e+01 4.6913141578e+01 1.6825168061e+01
220 1 1 7.6394400000e-01 2.4049031969e+01 1.1583423077e+01 5.8810107759e+01
221 1 1 7.6394400000e-01 6.0850193711e+01 2.2294383818e+01 3.1985778568e+01
222 1 1 7.6394400000e-01 1.7432838850e+00 5.3814225099e+01 6.9551287095e+00
223 1 1 7.6394400000e-01 2.3125376207e+01 1.7667865491e+00 2.4160608115e+01
224 1 1 7.6394400000e-01 5.2349359317e+01 6.2538673708e+01 2.8737761234e+01
225 1 1 7.6394400000e-01 6.2416516231e+01 3.5328568668e+01 5.1098927223e+01
226 1 1 7.6394400000e-01 4.7389203196e+01 2.6960881321e+01 1.4090572157e+01
227 1 1 7.6394400000e-01 6.0573774080e+01 1.2971463949e+01 3.4889457202e+01
228 1 1 7.6394400000e-01 5.6124217168e+01 1.2600649850e+01 4.2369907326e+01
229 1 1 7.6394400000e-01 3.7429518005e+01 1.0122249926e+01 3.6722241947e+00
230 1 1 7.6394400000e-01 3.1023342529e+01 5.7686128828e+01 6.3975387655e+01
231 1 1 7.6394400000e-01 1.3050421744e+01 3.7148597872e+01 5.8386702148e+01
232 1 1 7.6394400000e-01 6.3191442447e+01 5.0636437079e+01 4.6168648580e+01
233 1 1 7.6394400000e-01 4.9520400180e+01 5.3045090707e+01 8.2325741738e+00
234 1 1 7.6394400000e-01 3.6066304969e+01 3.5681380057e+01 2.4493188130e+01
235 1 1 7.6394400000e-01 3.3548238749e+01 1.1771937645e+01 4.6522968448e+00
236 1 1 7.6394400000e-01 4.4980204170e+01 5.8556732048e+01 1.7342786683e+01
237 1 1 7.6394400000e-01 1.4399562410e+01 4.0007896417e+01 9.3791840955e+00
238 1 1 7.6394400000e-01 2.0235824776e+01 3.5283061547e+00 1.9300729472e+01
239 1 1 7.6394400000e-01 2.2971802062e+01 2.1733632364e+01 2.5267159168e+01
240 1 1 7.6394400000e-01 7.5172473478e+00 2.6598843693e+01 4.5614668622e+01
241 1 1 7.6394400000e-01 4.0101409900e+01 1.7377426979e+01 2.4421273128e+01
242 1 1 7.6394400000e-01 2.0422211089e+01 1.8566733681e+01 3.7676100910e+01
243 1 1 7.6394400000e-01 5.2302505307e+01 8.8640778269e-01 6.3370752018e+01
244 1 1 7.6394400000e-01 6.2875986069e+01 3.7213377885e+01 5.4425977722e+01
245 1 1 7.6394400000e-01 8.9156545780e+00 2.5389487630e+00 1.9945177785e+01
246 1 1 7.6394400000e-01 1.1960238464e+01 3.8949000155e+01 2.2705912010e+00
247 1 1 7.6394400000e-01 2.6411459750e+01 2.1831133933e+01 3.1118841849e+01
248 1 1 7.6394400000e-01 5.0419063082e+01 4.2466561403e+01 6.3782462917e+01
249 1 1 7.6394400000e-01 2.1197219077e+01 4.9825567112e+00 1.8469546979e+01
250 1 1 7.6394400000e-01 4.2434419974e+01 3.1129856044e+01 5.2571517855e+01
251 1 1 7.6394400000e-01 3.5989900426e+01 3.0259762719e+01 1.1282920119e+01
252 1 1 7.6394400000e-01 5.1453848053e+00 1.6583289511e+01 2.4810384866e+01
253 1 1 7.6394400000e-01 5.9260502938e+01 3.4311364650e+01 1.9526726675e+01
254 1 1 7.6394400000e-01 1.2436594717e+01 4.9305436751e+01 1.9933412353e+01
255 1 1 7.6394400000e-01 5.5281002415e+00 1.9949255291e+01 4.4926377501e+01
256 1 1 7.6394400000e-01 2.3000931459e+01 4.7699326714e+01 3.9639739394e+01
257 1 1 7.6394400000e-01 3.5339573818e+01 6.2781655926e+00 7.7159710921e+00
258 1 1 7.6394400000e-01 2.2416809723e+01 3.0444807128e+01 6.3027412138e+01
259 1 1 7.6394400000e-01 5.2895418059e+01 3.1951964719e+01 2.4092164044e+00
260 1 1 7.6394400000e-01 4.0932585224e+01 4.5621499418e+01 4.1224969347e+01
261 1 1 7.6394400000e-01 5.4230462883e+00 2.1634792487e+01 3.4672076629e+01
262 1 1 7.6394400000e-01 2.5148079558e+01 5.0361675953e+00 1.8448839118e+01
263 1 1 7.6394400000e-01 2.2701436367e+01 1.5870368874e+01 3.9358210754e+00
264 1 1 7.6394400000e-01 3.8036719535e+01 4.7040543585e+01 3.9475676013e+01
265 1 1 7.6394400000e-01 3.6420858338e+01 3.1964399528e+01 5.0931892615e+01
266 1 1 7.6394400000e-01 3.1092318079e+01 5.3673103752e+00 5.7299152166e+01
267 1 1 7.6394400000e-01 5.2733390293e+00 3.7342667445e+00 3.9052002374e+01
268 1 1 7.6394400000e-01 5.4970378040e-01 4.9826221244e+01 4.8372993613e+01
269 1 1 7.6394400000e-01 4.4755153438e+01 5.6775495673e+01 5.6578083838e+01
270 1 1 7.6394400000e-01 4.8489107383e+01 1.8381827121e+01 3.1131708216e+01
271 1 1 7.6394400000e-01 1.0109721353e+01 4.2622179782e+01 3.4426695928e+01
272 1 1 7.6394400000e-01 5.2188926596e+01 4.4033070668e+01 3.6691212974e+01
273 1 1 7.6394400000e-01 4.4067202138e+01 3.8465730458e+01 3.7887607953e+01
274 1 1 7.6394400000e-01 4.0009852505e+00 2.7460838838e+01 4.6884341094e+01
275 1 1 7.6394400000e-01 7.2343585097e+00 3.1911961614e+01 5.1579649584e+00
276 1 1 7.6394400000e-01 2.1925311556e+01 4.9114085920e+01 5.5846037175e+01
277 1 1 7.6394400000e-01 1.5057616401e+01 5.9687702517e+01 3.8469469378e+01
278 1 1 7.6394400000e-01 5.2987392547e+01 5.3592110569e+01 6.2574521209e+01
279 1 1 7.6394400000e-01 4.3948354751e+01 1.8497160843e+01 4.7468271441e+01
280 1 1 7.6394400000e-01 3.7232749567e+01 1.5804421183e+01 1.3908970846e+01
281 1 1 7.6394400000e-01 4.9961074328e+01 4.9704809926e+01 1.5262450433e+01
282 1 1 7.6394400000e-01 2.5725476025e+01 2.6419993883e+01 5.4597711538e+01
283 1 1 7.6394400000e-01 5.2159684697e+01 2.2078016058e+01 2.3712101721e+00
284 1 1 7.6394400000e-01 5.7014934411e+00 5.0900666676e+01 3.1567953585e+01
285 1 1 7.6394400000e-01 5.8103445626e+01 5.2848321710e+01 3.9460674780e+01
286 1 1 7.6394400000e-01 2.4458881604e+01 2.3514752106e+01 1.4277936840e+01
287 1 1 7.6394400000e-01 1.8929132396e+00 4.1266994009e+01 3.7421331188e+01
288 1 1 7.6394400000e-01 5.0882165085e+01 3.2068665987e+01 1.2705964178e+01
289 1 1 7.6394400000e-01 6.3786998658e+01 4.8882240934e+01 4.6434479366e+01
290 1 1 7.6394400000e-01 2.0249013939e+00 2.7140712914e+01 5.7551462209e+01
291 1 1 7.6394400000e-01 4.9447735055e+01 3.0979478800e+00 2.1719401007e+01
292 1 1 7.6394400000e-01 4.6675389006e+01 2.3643438033e+01 4.3961787085e+01
293 1 1 7.6394400000e-01 3.6513410020e+01 3.4053041404e+01 2.5101925576e+01
294 1 1 7.6394400000e-01 4.3907435780e+01 9.2922259595e+00 2.4867005847e+01
295 1 1 7.6394400000e-01 7.8367468447e+00 2.0333050147e+01 2.5531608693e+01
296 1 1 7.6394400000e-01 1.5305554747e+01 2.2153401173e+01 7.2807721373e+00
297 1 1 7.6394400000e-01 2.1253755764e+01 1.9919575769e+01 3.0474662907e+01
298 1 1 7.6394400000e-01 3.1566380933e+01 5.7539832329e+01 4.0729809379e+01
299 1 1 7.6394400000e-01 3.5959105070e+00 4.6182344813e+01 2.8985255208e+01
300 1 1 7.6394400000e-01 3.4046173839e+01 4.2837123027e+01 4.1062205129e+01
301 1 1 7.6394400000e-01 2.6205476861e+00 3.7969897241e+00 3.8215402136e+01
302 1 1 7.6394400000e-01 5.5306933834e+01 4.4784079648e+01 5.8375468604e+01
303 1 1 7.6394400000e-01 1.2810538742e+01 3.2517606228e+01 4.2995852960e+01
304 1 1 7.6394400000e-01 7.3676170360e+00 7.6562373687e+00 3.0659703623e+01
305 1 1 7.6394400000e-01 3.3574538832e+01 3.8013041998e+01 5.5616098980e+01
306 1 1 7.6394400000e-01 5.3627313096e+00 3.3377228185e+01 5.4041554836e+01
307 1 1 7.6394400000e-01 5.4763024447e+00 5.4492954674e+01 1.4004150546e+01
308 1 1 7.6394400000e-01 2.2735624279e+01 5.7533218752e+01 4.1508697885e+01
309 1 1 7.6394400000e-01 4.5454353891e+01 5.4169338429e+01 3.7159013735e+01
310 1 1 7.6394400000e-01 6.3738274866e+01 5.1575365802e+01 5.3541229137e+01
311 1 1 7.6394400000e-01 6.6734196086e+00 5.1335009157e+01 3.5487951231e+01
312 1 1 7.6394400000e-01 3.3073617306e+01 4.2817663326e+01 5.6593794450e-01
313 1 1 7.6394400000e-01 2.9885603632e+01 3.6608692153e+01 3.9429136569e+01
314 1 1 7.6394400000e-01 1.1918113281e+01 6.2601003334e+01 5.8309895729e+01
315 1 1 7.6394400000e-01 2.5293696928e+01 5.8102674450e+01 3.3811506856e+01
316 1 1 7.6394400000e-01 3.2565901190e+00 2.3685585588e+01 9.2414863047e+00
317 1 1 7.6394400000e-01 6.2476673748e+01 3.2821974198e+01 3.6643519597e+01
318 1 1 7.6394400000e-01 4.8275659618e+01 5.4446169360e+01 2.4792717403e+01
319 1 1 7.6394400000e-01 2.0168467893e+01 2.0307401241e+01 2.2526894090e+01
320 1 1 7.6394400000e-01 4.2791093675e+01 2.2841448868e+01 6.1571499650e+01
321 1 1 7.6394400000e-01 5.4374329452e+01 4.7796278212e+01 6.1033563972e+01
322 1 1 7.6394400000e-01 3.4981694657e+01 5.4831401216e+01 9.5405633265e+00
323 1 1 7.6394400000e-01 1.8304835477e+01 1.3481844518e+01 4.9749786067e+01
324 1 1 7.6394400000e-01 4.1808787497e+01 2.7720401664e+01 1.4736337490e+01
325 1 1 7.6394400000e-01 6.0941411794e+00 3.4370813684e+01 2.8491908308e+01
326 1 1 7.6394400000e-01 1.9569375243e+00 8.1038600912e+00 6.1152670743e+01
327 1 1 7.6394400000e-01 1.8999546542e+01 3.3766558607e+01 5.3549720728e+01
328 1 1 7.6394400000e-01 5.7744154512e+01 1.7113733061e+01 5.1441117520e+01
329 1 1 7.6394400000e-01 4.8219775862e+01 3.3519350186e+01 3.7010754223e+01
330 1 1 7.6394400000e-01 5.0924665964e+00 4.2024883644e+01 1.0973103279e+01
331 1 1 7.6394400000e-01 6.0731856296e+01 5.9874318833e+01 3.8263981028e+01
332 1 1 7.6394400000e-01 3.8108534917e+01 2.5842915660e+01 8.6823738372e+00
333 1 1 7.6394400000e-01 4.3561344709e+01 4.7406082652e+01 3.5370666944e+00
334 1 1 7.6394400000e-01 4.9088378905e+01 2.2528502460e+01 5.5916362113e+01
335 1 1 7.6394400000e-01 5.3144068277e+01 2.7618818895e+01 4.5837743192e+01
336 1 1 7.6394400000e-01 4.2695153662e+01 5.8091918342e+01 8.0499564719e+00
337 1 1 7.6394400000e-01 9.1661858944e+00 1.1786771775e+01 1.0150330239e+01
338 1 1 7.6394400000e-01 5.2395417156e+01 3.0444422199e+01 5.5666012304e+01
339 1 1 7.6394400000e-01 2.6335194617e+01 3.6543849681e+01 5.1316170938e+01
340 1 1 7.6394400000e-01 1.4296735262e+01 6.2410435149e+01 2.1487807734e+01
341 1 1 7.6394400000e-01 2.1204837477e+01 4.7212242921e+01 4.0453521381e+01
342 1 1 7.6394400000e-01 5.6816004111e-02 1.1188320620e+01 1.3495516654e+01
343 1 1 7.6394400000e-01 1.2744664057e+01 1.6941056966e+01 3.1876503126e+01
344 1 1 7.6394400000e-01 9.4869708486e+00 6.2414625530e+01 5.7245584467e+01
345 1 1 7.6394400000e-01 2.2829981779e+00 2.6305153579e+01 6.9438132182e+00
346 1 1 7.6394400000e-01 5.1783784604e+01 1.8626589886e+01 4.7529722382e+01
347 1 1 7.6394400000e-01 9.5808985530e-01 9.6056269416e+00 3.4088252008e+01
348 1 1 7.6394400000e-01 2.0604841582e+00 3.7144129516e+01 1.9439184784e+01
349 1 1 7.6394400000e-01 5.5899266274e+01 4.8438331295e+01 3.8018363343e+01
350 1 1 7.6394400000e-01 1.2813365267e+01 1.6487341635e+01 4.1904770650e+01
351 1 1 7.6394400000e-01 7.8621434499e+00 1.5635896563e+00 4.7996493042e+01
352 1 1 7.6394400000e-01 5.6828544314e+01 6.7461445068e+00 3.6272320133e+01
353 1 1 7.6394400000e-01 4.5964289150e+01 5.7808484389e+01 4.4008339390e+00
354 1 1 7.6394400000e-01 9.1592435379e+00 7.2054405901e+00 6.9874749862e+00
355 1 1 7.6394400000e-01 3.3582143205e+01 3.8940294723e+01 6.1818224069e+01
356 1 1 7.6394400000e-01 3.9080320068e+01 3.0225022070e+01 1.0767055392e+01
357 1 1 7.6394400000e-01 1.4207769258e+01 3.5951580790e+01 6.2697150341e+01
358 1 1 7.6394400000e-01 2.9291286936e+01 1.1439942082e+01 1.7022944594e+01
359 1 1 7.6394400000e-01 5.4040011286e+01 6.0089035985e+01 5.8101306433e+01
360 1 1 7.6394400000e-01 1.1556376471e+01 2.0066021498e+01 4.9835372543e+01
361 1 1 7.6394400000e-01 8.3837819265e+00 3.5144898016e+01 4.6759472620e+01
362 1 1 7.6394400000e-01 4.2441501542e+01 4.2922304325e+01 4.6385324407e+01
363 1 1 7.6394400000e-01 5.8762623616e+01 1.8516635958e+01 4.0586171891e+00
364 1 1 7.6394400000e-01 1.6900624663e+00 4.1621410890e+01 4.4043809790e+00
365 1 1 7.6394400000e-01 7.6037565883e+00 4.4307976182e+01 5.0210195352e+01
366 1 1 7.6394400000e-01 4.5212076547e+01 1.6651781184e+01 4.2933092837e+01
367 1 1 7.6394400000e-01 1.1490381106e+01 5.3914211621e+01 4.2019921487e+01
368 1 1 7.6394400000e-01 2.2159673008e+00 5.4551487246e+01 5.9555764545e+01
369 1 1 7.6394400000e-01 4.2739692844e+01 1.4493343033e+01 3.8207783210e+01
370 1 1 7.6394400000e-01 3.4268230168e+01 3.8435704521e+01 6.0084335497e+01
371 1 1 7.6394400000e-01 3.9738104554e+01 2.8484503726e+01 1.2386730802e+01
372 1 1 7.6394400000e-01 2.2070252839e+01 2.3485153314e+01 3.7725118276e+01
373 1 1 7.6394400000e-01 2.0939569254e+01 3.0148032839e+01 2.5123949441e+01
374 1 1 7.6394400000e-01 2.7165880496e+01 3.1215458167e+01 3.8864938389e+01
375 1 1 7.6394400000e-01 5.8927341212e+01 2.2046531871e+01 6.7157795287e-01
376 1 1 7.6394400000e-01 1.5070865226e+01 3.5438955642e+01 5.4637391148e+01
377 1 1 7.6394400000e-01 1.8856104973e+01 3.9987861728e+01 2.3819260077e+01
378 1 1 7.6394400000e-01 5.1162645988e+01 2.3373224942e+01 1.7520360674e+01
379 1 1 7.6394400000e-01 4.7906344660e+01 6.8631202135e+00 2.9503281086e+01
380 1 1 7.6394400000e-01 6.0489751586e+00 3.5668713613e+01 2.0893854701e+01
381 1 1 7.6394400000e-01 3.5360596517e+01 3.8487189153e+01 3.0939707843e+01
382 1 1 7.6394400000e-01 1.7104748601e+01 2.6584072553e+01 2.6390219300e+01
383 1 1 7.6394400000e-01 5.8392378522e+01 5.0649175263e+01 3.5337088190e+01
384 1 1 7.6394400000e-01 4.2682772651e+00 1.7306380509e+01 3.7738590457e+00
385 1 1 7.6394400000e-01 1.4020601553e+01 1.1684755485e+01 4.5200435571e+01
386 1 1 7.6394400000e-01 2.7657069911e+00 2.4571428125e+01 6.3420604662e+01
387 1 1 7.6394400000e-01 9.1654356986e+00 5.9313132703e+01 3.7830110858e+00
388 1 1 7.6394400000e-01 5.7030866896e+01 1.0291773673e+01 6.3111049940e+01
389 1 1 7.6394400000e-01 5.8800461610e+01 4.8085857654e+01 2.8801792700e+01
390 1 1 7.6394400000e-01 5.5005766888e+01 1.0454188124e+01 2.4480231826e+01
391 1 1 7.6394400000e-01 8.9937357331e+00 2.7919087210e+01 3.1128555858e+01
392 1 1 7.6394400000e-01 5.4085346481e+01 3.4303483584e+01 3.9143714431e+01
393 1 1 7.6394400000e-01 2.3312974102e+01 2.7748834321e+01 6.0905711489e+01
394 1 1 7.6394400000e-01 2.1538828622e+00 4.6974496196e+01 3.1696890682e+01
395 1 1 7.6394400000e-01 7.2279421375e+00 6.9866404913e+00 4.3495014088e+01
396 1 1 7.6394400000e-01 2.8605731577e+00 2.5931047370e+00 2.6183704239e+01
397 1 1 7.6394400000e-01 2.5746664580e+01 2.8788557440e+01 3.7975812713e+01
398 1 1 7.6394400000e-01 5.3713372603e+01 2.1526681133e+01 3.8890500563e+01
399 1 1 7.6394400000e-01 4.6804118272e+01 2.1380328198e+01 1.9262234218e+01
400 1 1 7.6394400000e-01 4.7072122041e+01 4.0514861270e+01 4.6990185386e+01
401 1 1 7.6394400000e-01 2.3436010073e+01 2.0398320194e+01 5.6590792021e+01
402 1 1 7.6394400000e-01 6.3020420620e+01 5.9792559819e+01 2.7899278057e+01
403 1 1 7.6394400000e-01 2.4788985722e+01 1.3476149342e+00 1.2775990932e+01
404 1 1 7.6394400000e-01 5.4500056245e+01 4.4184110690e+01 1.8159665919e+01
405 1 1 7.6394400000e-01 3.9111240078e+01 1.8385530653e+01 2.1542226832e+01
406 1 1 7.6394400000e-01 1.1375092802e-01 4.8878477765e+01 2.9645505525e+01
407 1 1 7.6394400000e-01 5.9820534405e+01 2.6369325203e+01 6.3751364101e+01
408 1 1 7.6394400000e-01 3.7534937881e+01 1.9304309538e+01 5.1824220113e+01
409 1 1 7.6394400000e-01 4.3122248563e+01 2.1931975057e+01 3.5759162197e+01
410 1 1 7.6394400000e-01 6.3309484612e+01 6.9906468380e+00 3.1966952007e+01
411 1 1 7.6394400000e-01 4.4503549004e+01 1.7088373004e+01 4.4831573198e+01
412 1 1 7.6394400000e-01 1.5967914776e+01 5.5358234650e+01 5.2875418240e+01
413 1 1 7.6394400000e-01 5.6397554255e+01 7.3204457123e+00 2.0845133698e+01
414 1 1 7.6394400000e-01 4.2221894266e+01 1.4249518281e+01 5.3304907303e+01
415 1 1 7.6394400000e-01 5.4787307494e+01 1.4475113843e+01 5.8106248661e+01
416 1 1 7.6394400000e-01 8.3328612644e+00 4.0309642771e+01 5.3771069670e+01
417 1 1 7.6394400000e-01 2.9352347706e+01 3.0055679717e+01 5.7868725605e+01
418 1 1 7.6394400000e-01 6.1865775272e+01 2.2915209461e+01 4.3060382414e+01
419 1 1 7.6394400000e-01 6.5554596036e+00 6.3694641116e+01 1.0756844278e+00
420 1 1 7.6394400000e-01 9.0251976718e+00 1.6011287450e+01 6.1305159546e+01
421 1 1 7.6394400000e-01 4.7585448351e+01 2.9764989282e+01 6.2669037977e+01
422 1 1 7.6394400000e-01 3.3838755726e+01 9.3793229455e+00 4.7769590182e+01
423 1 1 7.6394400000e-01 5.2535655120e+01 6.1912898821e+00 2.2448179333e+01
424 1 1 7.6394400000e-01 3.8523741065e+01 6.2699701710e+01 7.2686391943e+00
425 1 1 7.6394400000e-01 6.2484482480e+01 3.7816793423e+01 2.9029368926e+01
426 1 1 7.6394400000e-01 6.1136355969e+01 2.0185123162e+01 4.3026394475e+00
427 1 1 7.6394400000e-01 4.1178535175e+01 7.9732871343e+00 2.9074855110e+01
428 1 1 7.6394400000e-01 4.1212291078e+01 3.6854791535e+01 5.2383451706e+00
429 1 1 7.6394400000e-01 5.6740653538e+01 2.1144618441e+01 4.4705715807e+01
430 1 1 7.6394400000e-01 2.4408482499e+01 3.7602755108e+01 5.2093082023e+01
431 1 1 7.6394400000e-01 1.9643909970e+00 3.2634614536e+01 2.9370303104e+01
432 1 1 7.6394400000e-01 3.8930927819e+01 6.3079965543e+01 2.6436099569e+01
433 1 1 7.6394400000e-01 1.1838093697e+01 2.8295459557e-01 1.2548134144e+01
434 1 1 7.6394400000e-01 1.3713050165e+01 2.5752005654e+01 4.1257885756e+01
435 1 1 7.6394400000e-01 3.3105583590e+01 1.3996729189e+01 1.4671831640e+01
436 1 1 7.6394400000e-01 4.2011642717e+01 1.5519654377e+01 9.8086596584e+00
437 1 1 7.6394400000e-01 1.9099806075e+01 4.8674540651e+01 3.5875102151e+01
438 1 1 7.6394400000e-01 1.3066793489e+01 5.5641345100e+00 3.2484352942e+01
439 1 1 7.6394400000e-01 3.4122006860e+01 1.7833356513e+01 5.5174145779e+01
440 1 1 7.6394400000e-01 2.0255315213e+01 3.3126699554e+01 3.6669963818e+01
441 1 1 7.6394400000e-01 2.7715585971e+01 5.9339434232e+01 3.0453295215e+01
442 1 1 7.6394400000e-01 2.7929145068e+01 5.1512407304e+01 8.2961079473e+00
443 1 1 7.6394400000e-01 5.7955565202e+01 2.0147079216e+01 2.4467315713e+01
444 1 1 7.6394400000e-01 3.6858194940e+01 1.3928311566e+01 5.1638937742e+01
445 1 1 7.6394400000e-01 2.6319407477e+01 5.7481315318e+01 4.2587758186e+01
446 1 1 7.6394400000e-01 4.8314182391e+01 2.0211690157e+01 1.2805023841e+01
447 1 1 7.6394400000e-01 2.1175280644e+01 5.1614160847e+01 4.0858737388e+01
448 1 1 7.6394400000e-01 4.3722657592e+01 5.9529272325e+01 6.0552612808e+01
449 1 1 7.6394400000e-01 4.9235032106e+01 1.8779770341e+01 3.8527185047e+01
450 1 1 7.6394400000e-01 4.2989695848e+01 2.6528119426e+01 5.0723127817e+01
451 1 1 7.6394400000e-01 9.3407180903e+00 1.8557023909e+01 1.3816891909e+01
452 1 1 7.6394400000e-01 5.1316645766e+00 2.2707649838e+01 5.3838429016e+01
453 1 1 7.6394400000e-01 4.3103055658e+01 3.4160891036e+01 5.6997095986e+01
454 1 1 7.6394400000e-01 5.1957091885e+01 2.1375693946e+01 6.4346229044e+00
455 1 1 7.6394400000e-01 1.5789072782e+01 1.8975523318e+01 6.3392531373e+01
456 1 1 7.6394400000e-01 3.4937195187e+01 5.5379908980e+00 3.0295736551e+01
457 1 1 7.6394400000e-01 2.6427194047e+01 3.3141443795e+01 4.9013160875e+01
458 1 1 7.6394400000e-01 2.7273241752e+01 5.1672742339e+01 3.8841656628e+01
459 1 1 7.6394400000e-01 6.2614477058e+01 5.1163715850e+01 4.0095959031e+01
460 1 1 7.6394400000e-01 5.3844833584e+01 1.7533761679e+01 4.2541586598e+01
461 1 1 7.6394400000e-01 9.3892547194e+00 5.0663451019e+01 3.5313538015e+01
462 1 1 7.6394400000e-01 4.1474461648e+01 5.5519327529e+01 1.1874877703e+01
463 1 1 7.6394400000e-01 2.4638130438e+01 4.1746935745e+01 6.0067215231e+01
464 1 1 7.6394400000e-01 2.5129406268e+01 4.5156619592e+01 5.2176755057e+01
465 1 1 7.6394400000e-01 2.3470883026e+01 3.9157430863e+01 5.9916336942e+01
466 1 1 7.6394400000e-01 1.3886506176e+00 1.5698011836e+01 5.3769281652e+01
467 1 1 7.6394400000e-01 2.1739526761e+01 1.8687446067e+00 8.1055619802e+00
468 1 1 7.6394400000e-01 2.1057655751e+01 2.0468511234e+01 4.7209129494e+01
469 1 1 7.6394400000e-01 5.0064985744e+01 1.5058002012e+01 3.7460622569e+01
470 1 1 7.6394400000e-01 2.1694045643e+01 2.8218300292e+01 3.4128942561e+01
471 1 1 7.6394400000e-01 1.0240225102e+01 4.1031921282e+01 4.3245370540e+01
472 1 1 7.6394400000e-01 1.1006123150e+01 1.0959534328e+01 4.3668631942e+00
473 1 1 7.6394400000e-01 4.9888695927e+01 5.1432826893e+01 5.5860823333e+01
474 1 1 7.6394400000e-01 3.9077505104e+01 6.0537922071e+01 9.1522756149e+00
475 1 1 7.6394400000e-01 4.6751216179e+01 6.0255233000e+01 3.5448728093e+01
476 1 1 7.6394400000e-01 1.5515594889e+01 4.2109878140e+01 4.3165354968e+01
477 1 1 7.6394400000e-01 1.8056262913e+01 4.9777674879e+01 5.6064564036e+01
478 1 1 7.6394400000e-01 5.1048362096e+01 5.3699005995e+01 8.7733621046e+00
479 1 1 7.6394400000e-01 3.3324345008e+01 4.8479845071e+01 4.5823410049e+01
480 1 1 7.6394400000e-01 3.2850585477e+01 5.9133787745e+01 1.3634228948e+01
481 1 1 7.6394400000e-01 2.0902263358e+01 6.3046488947e+01 4.1058534259e+01
482 1 1 7.6394400000e-01 3.0768148203e+01 4.3061541346e+01 4.8406086469e+00
483 1 1 7.6394400000e-01 9.8975181332e+00 4.9982978076e-02 3.6051825230e+01
484 1 1 7.6394400000e-01 3.7023152796e+01 1.9251507833e+01 3.5293335182e+01
485 1 1 7.6394400000e-01 5.6128320963e+01 2.1962507432e+01 7.2809245786e+00
486 1 1 7.6394400000e-01 6.1169593686e+01 1.5152128795e+01 1.0459757662e+00
487 1 1 7.6394400000e-01 4.9586984891e+01 5.2240828855e+01 2.7974001410e+01
488 1 1 7.6394400000e-01 2.1964522156e+01 3.2740454475e+01 5.0107758535e+01
489 1 1 7.6394400000e-01 4.3255568480e+01 5.0924487382e+01 3.4194844762e+00
490 1 1 7.6394400000e-01 4.1022542282e+01 3.2068957019e+01 6.3285159132e+01
491 1 1 7.6394400000e-01 3.2392159759e+01 1.8799965907e+01 5.1165722632e+01
492 1 1 7.6394400000e-01 6.3542926389e+01 4.5192267072e+01 2.0394690364e+01
493 1 1 7.6394400000e-01 4.3781238501e+01 3.4081748539e+01 4.3494142363e+01
494 1 1 7.6394400000e-01 5.8279011841e+01 2.4719171704e+01 2.9278266851e+01
495 1 1 7.6394400000e-01 5.9209619144e+01 3.9004477632e+01 2.7598378193e+00
496 1 1 7.6394400000e-01 2.5610143684e+01 1.6920532698e+01 3.7857619179e+00
497 1 1 7.6394400000e-01 1.7536380713e+01 6.0689381338e+01 4.9921963832e+00
498 1 1 7.6394400000e-01 5.4873930342e+01 3.0397288189e+01 3.1218217282e+00
499 1 1 7.6394400000e-01 1.0074899467e+01 4.3161812859e+01 4.6621821566e+01
500 1 1 7.6394400000e-01 5.8251101133e+01 1.0013608530e+01 4.2932408883e+01
501 1 1 7.6394400000e-01 4.7766283887e+01 6.2298858231e+01 4.1071748440e+01
502 1 1 7.6394400000e-01 3.7203178719e+01 2.7578732373e+01 2.6554567410e+00
503 1 1 7.6394400000e-01 1.7457028869e+01 5.2622136967e+01 3.6848950527e+00
504 1 1 7.6394400000e-01 6.1966187494e+00 1.1272100610e+01 4.1449359345e+01
505 1 1 7.6394400000e-01 1.4950525129e+01 5.5400794497e+01 3.2336458609e+01
506 1 1 7.6394400000e-01 5.4187296170e+01 2.7664964341e+01 3.8456463308e+01
507 1 1 7.6394400000e-01 5.1864654754e+01 2.9080651100e+01 2.0675840025e+01
508 1 1 7.6394400000e-01 4.2949064839e+01 2.2263481548e+01 1.7609109656e+01
509 1 1 7.6394400000e-01 8.0470439895e+00 3.1087873994e+00 2.8486711103e+01
510 1 1 7.6394400000e-01 4.9887163072e+01 5.8566266259e+01 2.5106434610e+01
511 1 1 7.6394400000e-01 4.2816262194e+01 2.6121006186e+01 5.2365898258e+01
512 1 1 7.6394400000e-01 1.1801240602e+01 5.8088181860e+01 4.4556282296e+01
513 1 1 7.6394400000e-01 5.0500119599e+01 8.8048567357e+00 2.7127189004e+01
514 1 1 7.6394400000e-01 8.9694743312e+00 5.7192533994e+00 1.8693874051e+01
515 1 1 7.6394400000e-01 5.8440814803e+01 5.8896030632e+01 5.5920117903e+01
516 1 1 7.6394400000e-01 6.8634012825e+00 4.8916432410e+01 3.1448827266e+01
517 1 1 7.6394400000e-01 4.3196742591e+01 3.3466910311e+01 7.2273083912e+00
518 1 1 7.6394400000e-01 3.0237540318e+01 8.5725433031e+00 7.9793808145e+00
519 1 1 7.6394400000e-01 1.7377627199e+00 5.8119386916e+01 1.9688068893e+01
520 1 1 7.6394400000e-01 4.3884984028e+01 1.5312758622e+01 6.2756740104e+01
521 1 1 7.6394400000e-01 2.4625044193e+01 3.8765932605e+00 1.6918252761e+01
522 1 1 7.6394400000e-01 6.1071592504e+01 2.4186751721e+01 1.3689115149e+01
523 1 1 7.6394400000e-01 7.8977248661e+00 3.6449305377e+01 2.0759893650e+01
524 1 1 7.6394400000e-01 5.3336566794e+01 2.8100700499e+01 5.0867054768e+01
525 1 1 7.6394400000e-01 6.3086643608e+01 5.9030938629e+01 4.2495906969e+01
526 1 1 7.6394400000e-01 1.1949471714e+01 5.4296075167e+01 5.3847335796e+01
527 1 1 7.6394400000e-01 5.1461442347e+00 2.2724906001e+01 3.4389844687e+00
528 1 1 7.6394400000e-01 5.6223132413e+01 2.9800025371e+01 4.3121082282e+01
529 1 1 7.6394400000e-01 2.5758296255e+00 6.0259962183e+01 4.1091890111e+01
530 1 1 7.6394400000e-01 5.4110181767e+01 3.2795903940e+01 4.3657641313e+01
531 1 1 7.6394400000e-01 3.2879873852e+01 4.8214537095e+01 3.3938769285e+01
532 1 1 7.6394400000e-01 4.3383038711e+01 3.5880171926e+00 4.3409257374e+01
533 1 1 7.6394400000e-01 3.3023408300e+01 6.4547145312e+00 8.8034300574e+00
534 1 1 7.6394400000e-01 3.6895950162e+01 3.8650927413e+00 5.5898659690e+01
535 1 1 7.6394400000e-01 1.1125157725e+01 2.9802629988e+01 1.3438080669e+01
536 1 1 7.6394400000e-01 5.0267941981e+01 4.8838237883e+01 3.8555012961e+01
537 1 1 7.6394400000e-01 5.2410055316e+01 5.6883973134e+00 5.8905957655e+01
538 1 1 7.6394400000e-01 5.0702165436e+00 1.2647171775e+01 3.0091399212e+01
539 1 1 7.6394400000e-01 4.3527472065e+01 4.1911174120e+00 6.3812381327e+01
540 1 1 7.6394400000e-01 1.6724906582e+01 5.5472477844e+01 8.5861473543e+00
541 1 1 7.6394400000e-01 1.3328306201e+01 3.4413981222e+01 1.8983193802e+01
542 1 1 7.6394400000e-01 4.8946072004e+01 4.5652244857e+00 9.0677390837e+00
543 1 1 7.6394400000e-01 2.7992488452e+01 3.0097771167e+01 6.0853825743e+01
544 1 1 7.6394400000e-01 2.6218657400e+01 3.8001376925e+01 1.9391117463e+01
545 1 1 7.6394400000e-01 3.3646196606e+01 1.3354799687e+01 2.2191864247e+01
546 1 1 7.6394400000e-01 1.4404253290e+01 2.3611157125e+01 4.1435607027e+01
547 1 1 7.6394400000e-01 5.3824845864e+01 2.8540015492e+01 4.3942597300e+01
548 1 1 7.6394400000e-01 5.7753208127e+01 6.0950352107e+01 2.7428005200e+01
549 1 1 7.6394400000e-01 3.3480369561e+01 2.8507052144e+01 1.7738334114e+00
550 1 1 7.6394400000e-01 1.6325110155e+01 2.1242297800e+01 4.1550829258e+01
551 1 1 7.6394400000e-01 3.7337124031e+01 5.0150784812e+01 5.5185316660e+01
552 1 1 7.6394400000e-01 3.0032215460e+01 5.0154663173e+01 1.1310294998e+00
553 1 1 7.6394400000e-01 1.3576596489e+01 5.7036834723e+01 3.0753384102e+00
554 1 1 7.6394400000e-01 1.2376607158e+01 5.5883189155e+01 5.8624790398e+01
555 1 1 7.6394400000e-01 2.0026008455e+01 8.2822877898e-01 2.3736474655e+00
556 1 1 7.6394400000e-01 1.5253279652e+01 5.5215543487e+01 2.9440661841e+01
557 1 1 7.6394400000e-01 1.5656716161e+01 6.0704160380e+01 2.4734126560e+01
558 1 1 7.6394400000e-01 8.7063885050e+00 3.7427349299e+01 3.3903310011e+01
559 1 1 7.6394400000e-01 2.2808801086e+01 4.7286070182e+01 4.2526196765e+01
560 1 1 7.6394400000e-01 6.9976025220e+00 2.1219630095e+01 2.7857490677e+01
561 1 1 7.6394400000e-01 1.0170258691e+01 6.2912668584e+01 1.0310437501e+01
562 1 1 7.6394400000e-01 5.5998012800e+01 5.0732176251e+01 5.7201386178e+00
563 1 1 7.6394400000e-01 9.9220870881e+00 2.8403529738e+01 1.4060034460e+01
564 1 1 7.6394400000e-01 6.0491519151e+00 6.7396380975e+00 6.2080544374e+01
565 1 1 7.6394400000e-01 5.6425535970e+01 3.1778990130e+01 3.5913268060e+01
566 1 1 7.6394400000e-01 3.4964560393e+01 4.8860902408e+01 5.8888204601e+01
567 1 1 7.6394400000e-01 2.5728822814e+01 6.8777576983e+00 6.2223527445e+01
568 1 1 7.6394400000e-01 1.1728839412e+01 2.9455443072e+01 6.1476608227e+01
569 1 1 7.6394400000e-01 2.4957039256e+01 7.3590870423e+00 2.5419363078e+01
570 1 1 7.6394400000e-01 4.7547451190e+01 3.9565072465e+00 5.4845006724e+00
571 1 1 7.6394400000e-01 3.5936796719e+01 2.5319685211e+01 2.7993136299e+01
572 1 1 7.6394400000e-01 8.1857823749e+00 5.9722127985e+01 3.0594514327e+01
573 1 1 7.6394400000e-01 4.5701820866e+01 4.6663787132e+00 3.5276645454e+00
574 1 1 7.6394400000e-01 5.5932893374e+01 2.8974119076e+01 2.1509363047e+01
575 1 1 7.6394400000e-01 6.3347931835e+01 2.7452405625e+01 2.3714297486e+01
576 1 1 7.6394400000e-01 5.1946998615e+01 3.5287003926e+01 5.5022324035e+01
577 1 1 7.6394400000e-01 4.7912611414e+01 1.2798934717e+01 4.4359475717e+01
578 1 1 7.6394400000e-01 5.1915749764e+01 5.8422516764e+01 5.5164141261e+01
579 1 1 7.6394400000e-01 1.8200278367e+01 6.8500365822e+00 3.6697462077e+01
580 1 1 7.6394400000e-01 8.2987645516e+00 2.4338126522e+01 8.8455619789e+00
581 1 1 7.6394400000e-01 4.3154248741e+01 2.2979429040e+00 2.0079927669e+01
582 1 1 7.6394400000e-01 6.0078967855e+01 2.3155998967e+01 3.8975797797e+01
583 1 1 7.6394400000e-01 5.0584195014e+00 3.8905645047e+01 6.3572756778e+01
584 1 1 7.6394400000e-01 3.2905675163e+00 4.1286070198e+01 1.9414298503e+01
585 1 1 7.6394400000e-01 3.1079796476e+01 5.8983250633e+01 2.5949414542e+01
586 1 1 7.6394400000e-01 1.0392044063e+01 1.3890644014e+01 5.9286213207e+01
587 1 1 7.6394400000e-01 1.4037764624e+01 2.3482764866e+00 3.5058455924e+01
588 1 1 7.6394400000e-01 5.3218254989e+01 5.0744533322e+01 3.8705794416e+01
589 1 1 7.6394400000e-01 5.8398586160e+01 1.6958119234e+01 5.5793260440e+01
590 1 1 7.6394400000e-01 1.9097944193e+00 3.2818399504e+01 6.3221982048e+01
591 1 1 7.6394400000e-01 3.7811914529e+01 1.3487896875e+01 4.4027349336e+01
592 1 1 7.6394400000e-01 5.1095929415e+01 1.3911570139e+01 1.6051689617e+00
593 1 1 7.6394400000e-01 5.9627964262e+01 6.1495816555e+01 2.1166152026e+01
594 1 1 7.6394400000e-01 9.2861743881e+00 2.9220693442e+00 6.9999630405e+00
595 1 1 7.6394400000e-01 7.3022665232e+00 3.3067366639e+01 4.0459811663e+01
596 1 1 7.6394400000e-01 6.7660694586e+00 3.0454720914e+01 5.6817310441e+01
597 1 1 7.6394400000e-01 2.0615552010e+01 5.0655682508e+01 2.2783954935e+01
598 1 1 7.6394400000e-01 2.3963740867e+01 6.6843433752e+00 3.3998236515e+01
599 1 1 7.6394400000e-01 2.5700528433e+00 2.6186003118e+01 3.3959946288e+01
600 1 1 7.6394400000e-01 1.4538589140e+01 5.9133233746e+01 1.5605378865e+00
601 1 1 7.6394400000e-01 2.4828784759e+01 1.6147670638e+01 4.9182266593e+01
602 1 1 7.6394400000e-01 1.3080583336e+01 3.2338066349e+01 8.1062318745e+00
603 1 1 7.6394400000e-01 4.7118271259e+01 4.5215347813e+01 4.7196027284e+00
604 1 1 7.6394400000e-01 5.2299976208e+01 3.7465121993e+01 1.2193559048e+01
605 1 1 7.6394400000e-01 2.8045442366e+01 4.3019598659e+01 3.4323657414e+01
606 1 1 7.6394400000e-01 5.3694360753e+01 3.9023183702e+01 9.9983253922e+00
607 1 1 7.6394400000e-01 3.3526786585e+01 4.7574177331e+00 5.7341918036e+01
608 1 1 7.6394400000e-01 2.4939957295e+00 4.8922947641e+01 9.0326990593e+00
609 1 1 7.6394400000e-01 5.3147464592e+01 2.3494970699e+01 5.2891529101e+00
610 1 1 7.6394400000e-01 4.6208123737e+01 7.4615638336e+00 5.0094588942e+01
611 1 1 7.6394400000e-01 1.8701735376e+00 1.6518383302e+01 6.0915190798e+01
612 1 1 7.6394400000e-01 5.1650974774e+01 5.6684972646e+01 6.3384891985e+01
613 1 1 7.6394400000e-01 1.0932606926e+01 5.6970732064e+01 4.6121446866e+01
614 1 1 7.6394400000e-01 3.0675928939e+01 4.6553365045e+01 3.3662472202e+01
615 1 1 7.6394400000e-01 5.0951990511e+01 1.4837798172e+01 4.4330848476e+01
616 1 1 7.6394400000e-01 5.0348676644e+01 4.0013588784e+01 4.6867443685e+01
617 1 1 7.6394400000e-01 4.1795368492e+01 4.9177937286e+01 5.2975240804e+01
618 1 1 7.6394400000e-01 5.8342036877e+01 1.3865444717e+01 7.1360337519e+00
619 1 1 7.6394400000e-01 6.0241910999e+01 4.5924126133e+01 5.0857938232e+01
620 1 1 7.6394400000e-01 1.0891977039e+01 6.0384454524e+01 2.0936674925e+01
621 1 1 7.6394400000e-01 2.7824719926e+01 5.8458813598e+01 4.2461735692e+01
622 1 1 7.6394400000e-01 2.6611787090e+01 4.1879257356e+01 3.7271706336e+01
623 1 1 7.6394400000e-01 4.5347573989e+01 2.2172068346e+01 5.2363051017e+00
624 1 1 7.6394400000e-01 5.5824848742e+01 2.5416170196e+01 4.6621302213e+01
625 1 1 7.6394400000e-01 1.3418207022e+01 5.0950968116e+01 1.5798476566e+01
626 1 1 7.6394400000e-01 4.9404427671e+01 3.8536179550e+01 4.0707658320e+01
627 1 1 7.6394400000e-01 1.2774125177e+01 2.9664902852e+01 3.4417021830e+01
628 1 1 7.6394400000e-01 9.9382027492e+00 9.5775573712e+00 3.5022941657e+01
629 1 1 7.6394400000e-01 5.5855112938e+01 5.0652637605e+01 1.2435229179e+01
630 1 1 7.6394400000e-01 5.2410149221e+01 3.4092101796e+01 6.1967406376e+01
631 1 1 7.6394400000e-01 7.6164231774e+00 6.8855527886e-01 2.5783361098e+01
632 1 1 7.6394400000e-01 2.6453045755e+00 3.7883259004e+01 1.5874067057e+01
633 1 1 7.6394400000e-01 3.9318782448e+01 4.3167377591e+01 1.9031009232e+01
634 1 1 7.6394400000e-01 3.6828478383e+01 6.0847159419e+01 6.0784458536e+00
635 1 1 7.6394400000e-01 5.2229765014e+01 4.1465897711e+01 4.6045414783e+01
636 1 1 7.6394400000e-01 6.0880094106e+01 3.7152970943e+01 4.5087942354e+01
637 1 1 7.6394400000e-01 1.1690234064e+01 3.6427260422e+01 7.0353211338e+00
638 1 1 7.6394400000e-01 3.0594809255e+01 4.9944458401e+01 4.2716686157e+01
639 1 1 7.6394400000e-01 6.1356040035e+01 3.2054588874e+01 2.7728271794e+01
640 1 1 7.6394400000e-01 6.1900075702e+01 1.9758223400e+01 5.9461765689e+01
641 1 1 7.6394400000e-01 1.0597540182e+01 1.2040762772e+01 5.6088173698e+01
642 1 1 7.6394400000e-01 2.7873707185e+01 6.1649828842e+01 9.1930067354e+00
643 1 1 7.6394400000e-01 4.5187648226e+01 6.2068920095e+01 5.9686478970e-02
644 1 1 7.6394400000e-01 5.7488514885e+01 6.3756194521e+00 1.6930468605e+01
645 1 1 7.6394400000e-01 4.9792640029e+01 5.8748711775e+01 2.6835057659e+01
646 1 1 7.6394400000e-01 1.3871355122e+01 4.4770021541e+01 7.5670916578e+00
647 1 1 7.6394400000e-01 3.7555166950e+01 2.6226181741e+01 1.9724372178e+01
648 1 1 7.6394400000e-01 2.2369080113e+01 5.0819287676e+01 4.7135949037e+00
649 1 1 7.6394400000e-01 2.3543231227e+01 1.5168447911e+01 5.6191645461e+01
650 1 1 7.6394400000e-01 3.5206731789e+00 5.4212901235e+01 1.8259464209e+01
651 1 1 7.6394400000e-01 4.0359315530e+01 5.1323470835e+01 4.5406294149e+01
652 1 1 7.6394400000e-01 4.5276701199e-01 5.2510255441e+01 3.5265384034e+01
653 1 1 7.6394400000e-01 1.0425460051e+01 2.1761919664e+01 5.9141023502e+01
654 1 1 7.6394400000e-01 3.9543673152e+01 5.6275524201e+01 9.3941562316e+00
655 1 1 7.6394400000e-01 4.0896422057e+01 4.7483640233e+01 1.4645280671e+01
656 1 1 7.6394400000e-01 5.2911563603e+01 3.2845900548e+01 5.8104066686e+01
657 1 1 7.6394400000e-01 4.0170001308e+01 6.1876347744e+01 1.6881363337e+01
658 1 1 7.6394400000e-01 6.9277450373e+00 6.0426973222e+01 3.8025749113e+01
659 1 1 7.6394400000e-01 8.7777082964e+00 9.3498732373e+00 1.3367163388e+01
660 1 1 7.6394400000e-01 5.7683678903e+01 3.4605077986e+01 2.2867419902e+01
661 1 1 7.6394400000e-01 1.9798620495e+01 1.1902861162e+01 3.2342893726e+01
662 1 1 7.6394400000e-01 2.9986413583e-01 1.0389469084e+01 8.1089700970e+00
663 1 1 7.6394400000e-01 5.4545603804e+01 1.4938495849e+01 4.9299602431e+01
664 1 1 7.6394400000e-01 2.2265777876e+00 5.5499803309e+01 2.9118537370e-01
665 1 1 7.6394400000e-01 3.7171047526e+01 2.8954129426e+01 6.0010645129e+01
666 1 1 7.6394400000e-01 2.1767426339e+01 3.0004261972e+01 5.6804848141e+00
667 1 1 7.6394400000e-01 2.9028666417e+01 2.7432881631e+01 2.1312816608e+01
668 1 1 7.6394400000e-01 5.8323330509e+01 2.3208926983e+01 1.9175441395e+01
669 1 1 7.6394400000e-01 2.4308857414e+01 1.3689451161e+01 1.7801884443e+01
670 1 1 7.6394400000e-01 3.7272025265e+01 1.8760987048e+01 5.9022016073e+01
671 1 1 7.6394400000e-01 3.8999984981e+01 4.1822347356e+01 4.8283132332e+01
672 1 1 7.6394400000e-01 3.4980644552e+01 5.3602457167e+01 3.5904952133e+01
673 1 1 7.6394400000e-01 1.8879867404e+01 1.9691862517e+01 1.1488396875e+01
674 1 1 7.6394400000e-01 6.2328328505e+01 2.7315870192e+01 4.7991274294e+01
675 1 1 7.6394400000e-01 4.9420893094e+01 3.9439914955e+01 3.5695040524e+01
676 1 1 7.6394400000e-01 5.2711302869e+01 3.5735826723e+01 2.3821155752e+00
677 1 1 7.6394400000e-01 6.3182718973e+01 4.1028165457e+01 7.1721367625e+00
678 1 1 7.6394400000e-01 5.9758378073e+01 1.5779815064e+01 2.2647604523e+01
679 1 1 7.6394400000e-01 5.9351427979e+01 2.3502739477e+01 2.6214375981e+01
680 1 1 7.6394400000e-01 4.3602853507e+01 1.2246555571e+01 3.5233862289e+01
681 1 1 7.6394400000e-01 2.2175085305e+01 3.9468752099e+01 1.3871041646e+01
682 1 1 7.6394400000e-01 1.7026910016e+01 2.7390154264e+01 2.1949585841e+01
683 1 1 7.6394400000e-01 2.9644295071e+01 2.6512362968e+01 6.7193418479e+00
684 1 1 7.6394400000e-01 2.7387458970e+01 3.8924972732e+01 3.6604304410e+00
685 1 1 7.6394400000e-01 5.3746526025e+01 2.7553027895e+01 4.8827236864e+01
686 1 1 7.6394400000e-01 5.9053698357e+01 3.9912789223e+01 3.9777169071e+01
687 1 1 7.6394400000e-01 6.2223387946e+01 3.4620327272e+01 3.9526740967e+01
688 1 1 7.6394400000e-01 1.9225528605e+01 1.0028376085e+01 1.4770338465e+01
689 1 1 7.6394400000e-01 3.8052380061e+01 6.1081768543e+01 6.0309501022e+01
690 1 1 7.6394400000e-01 3.4652564049e+01 5.1388877581e+01 1.9065420005e+01
691 1 1 7.6394400000e-01 3.0426844261e+01 1.8689397687e+01 2.6691611042e+01
692 1 1 7.6394400000e-01 6.9633330571e+00 5.8465052159e+01 1.9131163434e+01
693 1 1 7.6394400000e-01 2.4177276582e+01 3.9349568685e+01 3.9736088469e+01
694 1 1 7.6394400000e-01 5.5746713839e+01 2.9601332662e+01 3.4165991117e+01
695 1 1 7.6394400000e-01 4.4167401712e+01 5.2257752637e+01 1.3344772148e+01
696 1 1 7.6394400000e-01 6.2610437841e+01 6.3394158866e+01 4.7829894546e+01
697 1 1 7.6394400000e-01 5.2399751832e+01 5.6154301595e+01 3.1831013659e+01
698 1 1 7.6394400000e-01 5.8852830910e+01 2.8842881013e+01 3.2051408198e+01
699 1 1 7.6394400000e-01 5.9070894919e+01 4.4254823375e+01 1.9024413350e+01
700 1 1 7.6394400000e-01 3.4673491142e+01 3.5271602719e+01 1.2979072882e+01
701 1 1 7.6394400000e-01 4.1099389731e+01 6.1526229375e+01 5.7618578344e+01
702 1 1 7.6394400000e-01 2.4657741925e+00 4.5572350592e+01 1.0749130184e+01
703 1 1 7.6394400000e-01 6.1160219891e+01 1.6705205689e+01 1.5593741583e+01
704 1 1 7.6394400000e-01 5.3771461189e+00 1.3381014176e+01 1.2885196125e+01
705 1 1 7.6394400000e-01 1.4174452832e+01 5.6274890455e+01 2.8575690987e+01
706 1 1 7.6394400000e-01 7.1008555733e+00 1.9033190961e+01 5.5050510343e+01
707 1 1 7.6394400000e-01 3.5075504716e+01 6.1693927435e+01 1.7360268471e+01
708 1 1 7.6394400000e-01 6.3682889416e+01 1.7228080807e+01 4.9414595206e+00
709 1 1 7.6394400000e-01 2.1916804327e+01 1.1224716201e+01 6.2820522037e+01
710 1 1 7.6394400000e-01 3.0729754586e+01 5.1699721012e+01 6.3884559396e+01
711 1 1 7.6394400000e-01 2.2041211051e+01 5.8611871149e+01 5.8904945831e+01
712 1 1 7.6394400000e-01 2.6989540746e+01 1.3473144278e+01 1.8914810277e+01
713 1 1 7.6394400000e-01 6.0775509586e+01 3.8729736667e+01 1.7443023553e+01
714 1 1 7.6394400000e-01 5.7929605856e+01 5.9268178738e+01 3.4042499265e+00
715 1 1 7.6394400000e-01 4.2568468739e+01 6.2489817219e+01 2.8166623075e+01
716 1 1 7.6394400000e-01 6.7038553489e+00 5.7946555456e+00 1.8047048490e+01
717 1 1 7.6394400000e-01 1.8881908071e+01 2.2344514795e+01 5.9141048553e+01
718 1 1 7.6394400000e-01 6.3761763615e+01 6.2782469000e+01 1.7522485556e+01
719 1 1 7.6394400000e-01 2.6598719288e+01 3.8940454080e+01 9.6777997828e+00
720 1 1 7.6394400000e-01 2.3848334745e+01 7.2656858143e+00 5.2585170788e+01
721 1 1 7.6394400000e-01 2.8949346079e-01 4.2227838020e+01 2.7358845252e+01
722 1 1 7.6394400000e-01 2.4628285995e+01 4.1372215769e+01 4.1657283720e+01
723 1 1 7.6394400000e-01 3.5362175500e+01 3.6584628310e+01 2.6136488491e+01
724 1 1 7.6394400000e-01 3.5766834843e-02 1.1941674405e+01 4.8778059536e+01
725 1 1 7.6394400000e-01 2.1492901000e+01 4.0595298526e+01 2.4187072723e+00
726 1 1 7.6394400000e-01 2.4778342941e+01 1.9205106055e+00 3.5466626621e+01
727 1 1 7.6394400000e-01 1.3026849635e+01 2.1662241770e+01 1.0114758704e+01
728 1 1 7.6394400000e-01 5.1297348512e+01 3.6617593601e+01 2.1557527462e+01
729 1 1 7.6394400000e-01 1.8324811896e+01 4.0108266867e+01 2.0715136959e+01
730 1 1 7.6394400000e-01 5.5120450434e+01 4.2489718473e+00 3.7667916627e+01
731 1 1 7.6394400000e-01 5.2055241688e+01 2.6699839649e+01 2.8125807028e+00
732 1 1 7.6394400000e-01 6.4813368390e+00 7.8223919829e+00 7.7952333777e+00
733 1 1 7.6394400000e-01 5.0258857408e+01 5.7357006766e+01 2.3384126946e+01
734 1 1 7.6394400000e-01 4.9601611355e+01 4.7394012174e+01 4.2325813952e+01
735 1 1 7.6394400000e-01 6.2540888547e+01 2.2250222072e+01 5.7482687638e+01
736 1 1 7.6394400000e-01 5.4558615124e+01 2.9684348404e+00 6.2062260164e+01
737 1 1 7.6394400000e-01 6.0699745028e+01 2.8796238615e+01 2.9893190461e+01
738 1 1 7.6394400000e-01 3.2404450151e+01 4.0440521706e+00 5.7252487541e+01
739 1 1 7.6394400000e-01 5.8059110833e+01 2.1718599704e+01 7.2661451403e+00
740 1 1 7.6394400000e-01 4.5782233372e+01 2.4459828755e+01 3.0165489641e+01
741 1 1 7.6394400000e-01 2.9424910480e+01 4.5661310842e+01 3.9376259029e+01
742 1 1 7.6394400000e-01 3.1228122371e+00 2.9821212082e+00 3.0153217197e+01
743 1 1 7.6394400000e-01 8.8026873928e+00 2.4088060959e+01 6.1231559419e+01
744 1 1 7.6394400000e-01 3.6845896493e+01 5.2423771410e+01 5.2254821267e+01
745 1 1 7.6394400000e-01 1.6187502183e+01 2.9145365115e+01 1.1122717085e+01
746 1 1 7.6394400000e-01 1.3461899284e-02 4.9412642300e+01 5.6384958562e+01
747 1 1 7.6394400000e-01 3.1734308699e+01 2.9754235467e+01 2.1253331016e+01
748 1 1 7.6394400000e-01 4.5393226596e+01 7.0041250968e+00 4.8458300620e+01
749 1 1 7.6394400000e-01 2.4153030474e+01 5.3600370039e+01 4.9294645802e+01
750 1 1 7.6394400000e-01 4.3844608706e+01 2.3782873163e+01 1.5369128160e+01
751 1 1 7.6394400000e-01 4.9449408088e+01 1.8323652485e+01 6.3697380188e+01
752 1 1 7.6394400000e-01 5.8207765168e+01 5.8031754660e+01 1.4455436688e+01
753 1 1 7.6394400000e-01 3.1558997399e+01 2.6649568000e+01 4.8950478339e+01
754 1 1 7.6394400000e-01 2.2090072966e+01 1.3251842316e+01 5.6452010900e+01
755 1 1 7.6394400000e-01 6.6585621572e+00 3.6151475302e+01 5.2354913530e+01
756 1 1 7.6394400000e-01 5.0629464830e+01 2.4873066956e+00 6.1753223063e+01
757 1 1 7.6394400000e-01 4.2187047879e+01 5.3242718441e+01 2.5956862613e+01
758 1 1 7.6394400000e-01 1.0381765852e+01 3.8332689303e+01 2.3986222377e+00
759 1 1 7.6394400000e-01 4.7162056086e+01 9.7944305989e-01 4.3163933806e+01
760 1 1 7.6394400000e-01 5.7105814550e+01 8.8335072020e+00 3.4738810372e+00
761 1 1 7.6394400000e-01 4.3300379768e+01 2.6033357684e+01 2.1165913243e+01
762 1 1 7.6394400000e-01 1.9052586398e+01 4.8553092954e+01 5.0137850337e+01
763 1 1 7.6394400000e-01 3.0218556266e+00 4.4275404510e+01 2.2499503198e+01
764 1 1 7.6394400000e-01 2.6995017840e+01 4.3895180084e+01 5.2817911466e+01
765 1 1 7.6394400000e-01 3.0873506651e+01 4.2128911402e+01 5.5560572027e-02
766 1 1 7.6394400000e-01 4.3184223315e+00 4.8824436623e+01 7.5045394825e+00
767 1 1 7.6394400000e-01 2.7116105464e+01 1.3621528434e+01 4.2905277139e+01
768 1 1 7.6394400000e-01 4.7013069747e+01 1.2136773728e+01 3.5788523616e+01
769 1 1 7.6394400000e-01 4.5623582440e+01 5.4186498307e+01 1.3886735342e+01
770 1 1 7.6394400000e-01 4.8695933630e+01 5.7297990831e-01 1.6252519820e+01
771 1 1 7.6394400000e-01 4.7585231736e+01 4.0601209397e+01 2.4154350880e+01
772 1 1 7.6394400000e-01 5.5787290240e+01 5.6054952017e+01 3.1445451487e+00
773 1 1 7.6394400000e-01 4.9883775278e-01 2.4154893630e+00 4.6096067398e+01
774 1 1 7.6394400000e-01 5.1215607497e+01 2.1528069972e+01 3.2232079694e+01
775 1 1 7.6394400000e-01 5.7195000752e+01 5.4048049658e+01 3.3296254159e+00
776 1 1 7.6394400000e-01 5.2508824844e+01 6.0483953612e+01 4.6350595058e+01
777 1 1 7.6394400000e-01 1.1460056395e+01 4.5926311780e+01 2.4084087899e+01
778 1 1 7.6394400000e-01 6.2243677836e+01 2.4092324053e+01 2.5725959914e+01
779 1 1 7.6394400000e-01 4.1830452898e+01 1.0012158747e+01 5.2235109074e+01
780 1 1 7.6394400000e-01 3.6146543232e+01 1.3333502357e+01 1.4254165966e+01
781 1 1 7.6394400000e-01 4.9236417281e+01 4.7430763333e+01 6.2827222842e+00
782 1 1 7.6394400000e-01 4.3431764974e+01 3.7090918908e+01 2.0064432482e+01
783 1 1 7.6394400000e-01 6.1973321730e+01 3.7816956740e+01 1.5357695998e+01
784 1 1 7.6394400000e-01 6.1284044077e+01 2.5663253094e+01 4.7499289408e+00
785 1 1 7.6394400000e-01 3.6292781117e+01 8.5656372963e+00 2.2574511440e+01
786 1 1 7.6394400000e-01 8.2565343440e-01 2.5464533564e+01 4.0611879262e+01
787 1 1 7.6394400000e-01 3.8285956683e+01 7.5973969966e+00 1.3939907299e+01
788 1 1 7.6394400000e-01 4.7617064730e+01 3.2850394831e+01 4.3161639027e+01
789 1 1 7.6394400000e-01 1.8724939946e+01 2.9042463178e+01 7.4204248417e-01
790 1 1 7.6394400000e-01 4.0163329933e+01 9.2430389305e+00 5.5315230865e+01
791 1 1 7.6394400000e-01 2.6193307751e+01 4.4742764942e+01 1.6648672178e+01
792 1 1 7.6394400000e-01 3.2759920229e+01 6.2840331864e+01 3.8013898797e+01
793 1 1 7.6394400000e-01 4.5727180099e+01 3.2152479342e+01 4.8417017014e+01
794 1 1 7.6394400000e-01 1.6727865242e+01 3.8579008750e+01 3.2971560911e+01
795 1 1 7.6394400000e-01 5.9098528424e+01 5.4069634858e+01 9.5741220093e+00
796 1 1 7.6394400000e-01 2.3429364471e+01 2.1870053923e+01 1.8532252928e+01
797 1 1 7.6394400000e-01 6.8119214875e-01 2.8458150208e+01 3.1314172562e+01
798 1 1 7.6394400000e-01 2.1401279445e+01 2.8207389724e+01 8.3598535547e+00
799 1 1 7.6394400000e-01 1.0245879720e+01 5.9081317120e+00 6.8385682506e-01
800 1 1 7.6394400000e-01 4.6543699269e+01 4.7781744302e+01 5.0356352649e+01
801 1 1 7.6394400000e-01 2.4880234156e+01 1.2484663201e+01 3.0682248440e+01
802 1 1 7.6394400000e-01 6.3776576224e+01 1.2581762100e+01 4.1325689806e+01
803 1 1 7.6394400000e-01 3.6399100083e+01 4.9168286601e+00 3.5761083104e+01
804 1 1 7.6394400000e-01 1.7066103170e+01 6.3517613017e+01 5.5295956027e+01
805 1 1 7.6394400000e-01 5.2207659996e+00 1.1658002196e+01 5.3176943176e+01
806 1 1 7.6394400000e-01 4.9464031688e+01 3.9272422170e+01 2.7660356600e+01
807 1 1 7.6394400000e-01 3.7515441162e+01 3.9009615707e+01 4.6075547056e+01
808 1 1 7.6394400000e-01 4.0993467270e+01 2.1460992702e+01 5.0440191801e+01
809 1 1 7.6394400000e-01 4.4214518054e+01 1.6636900232e+01 5.5096716952e+01
810 1 1 7.6394400000e-01 4.1740227948e+01 3.7056398799e+01 5.1507403550e+01
811 1 1 7.6394400000e-01 4.6422449686e+01 6.3620576416e+01 4.7051062662e+01
812 1 1 7.6394400000e-01 4.4664739812e+01 5.7090435578e+01 4.2117074574e+01
813 1 1 7.6394400000e-01 4.8895019332e+01 6.1867102862e+01 1.2242549010e+01
814 1 1 7.6394400000e-01 4.7370824913e+01 4.5930614709e+01 1.7072778081e+01
815 1 1 7.6394400000e-01 1.6098319737e+01 8.9559894122e+00 4.1648193144e+00
816 1 1 7.6394400000e-01 3.9009518126e+00 4.3744762657e+01 2.0358299897e+01
817 1 1 7.6394400000e-01 3.9074633734e+01 5.3603548235e+01 1.6202119697e+01
818 1 1 7.6394400000e-01 4.2482340002e+01 2.9650607609e+01 5.7960738693e+00
819 1 1 7.6394400000e-01 3.5943992430e+01 7.3822776546e-01 6.2967356619e+01
820 1 1 7.6394400000e-01 3.5147233779e+01 3.3384808861e+01 2.0471804288e+01
821 1 1 7.6394400000e-01 3.9883690305e+01 1.4546251400e+01 2.8468458432e+01
822 1 1 7.6394400000e-01 6.3802544070e+00 3.0820303253e+00 4.5559479353e+01
823 1 1 7.6394400000e-01 4.6147165555e+01 2.7905538406e+01 2.0783312861e+01
824 1 1 7.6394400000e-01 1.5719143779e+00 1.4771657247e+00 2.9460444086e+01
825 1 1 7.6394400000e-01 2.2463564973e+01 3.1249309454e+01 3.3623907376e+01
826 1 1 7.6394400000e-01 2.6310106594e+01 6.1979363532e+01 3.2564109734e+01
827 1 1 7.6394400000e-01 1.5004991648e+01 9.2150601863e+00 1.2786170240e+01
828 1 1 7.6394400000e-01 3.0542904356e+01 6.0969282632e+01 2.9950475255e+01
829 1 1 7.6394400000e-01 3.2115678857e+01 1.1164828715e+00 7.4618181216e+00
830 1 1 7.6394400000e-01 3.6165172311e+01 2.8799090101e+01 3.4336826991e+01
831 1 1 7.6394400000e-01 1.5062391140e+01 3.2019705089e+01 5.8694159726e+01
832 1 1 7.6394400000e-01 4.3769218710e+01 2.1994229902e+01 6.3441321980e+01
833 1 1 7.6394400000e-01 1.4173988263e+01 1.4377985099e+01 2.5948681118e+01
834 1 1 7.6394400000e-01 1.0619799344e+01 1.5592051773e+01 4.7679184714e+01
835 1 1 7.6394400000e-01 4.7897464738e+01 1.5820790341e+01 2.6996257038e+01
836 1 1 7.6394400000e-01 4.9141374344e+01 5.3303657813e+01 3.8768276603e+01
837 1 1 7.6394400000e-01 4.6993015710e+01 1.1865476887e+01 2.4769514039e+01
838 1 1 7.6394400000e-01 4.3918027293e+01 6.1190014434e+01 6.2924118104e+01
839 1 1 7.6394400000e-01 4.1621754749e+01 5.7175695816e+01 1.3541546777e+01
840 1 1 7.6394400000e-01 5.5598715637e+01 5.6703837880e+01 2.9228087882e+01
841 1 1 7.6394400000e-01 2.2016059261e+01 3.9853947045e+01 3.2457758469e+01
842 1 1 7.6394400000e-01 4.8292565814e+01 4.4559956026e+01 1.0061571164e+01
843 1 1 7.6394400000e-01 4.9703026928e+00 2.1405895425e-01 5.5175713277e+01
844 1 1 7.6394400000e-01 5.7086909157e+00 3.8569629345e+01 6.0890455020e+01
845 1 1 7.6394400000e-01 4.6565737829e+01 4.3165831688e+00 2.0632089222e+01
846 1 1 7.6394400000e-01 5.4986696262e+01 3.3835413848e+01 3.8190264673e+01
847 1 1 7.6394400000e-01 2.4881584512e+01 1.5409950183e+01 2.6528591934e+01
848 1 1 7.6394400000e-01 1.9513718175e+01 5.9202372459e+00 1.3190396682e+01
849 1 1 7.6394400000e-01 2.6997248063e+01 4.4603785215e+01 5.8900115600e+01
850 1 1 7.6394400000e-01 3.9607678592e+01 1.7849553133e+01 5.2044520842e+01
851 1 1 7.6394400000e-01 1.5797195343e+01 4.5603455579e+01 5.8915835897e+01
852 1 1 7.6394400000e-01 1.8884036301e+01 1.2881479485e+01 6.3797859441e+01
853 1 1 7.6394400000e-01 3.1172715025e+01 3.5236351531e+01 1.1234616707e+01
854 1 1 7.6394400000e-01 1.2756034614e-01 4.9788374252e+01 1.4189430772e+01
855 1 1 7.6394400000e-01 1.1659258952e+01 4.3564752731e+01 4.1550532135e+01
856 1 1 7.6394400000e-01 3.5210811552e+01 1.4196838825e+01 4.1343894988e+01
857 1 1 7.6394400000e-01 5.3599609576e+01 4.8344382514e+01 1.8747763211e+01
858 1 1 7.6394400000e-01 1.9812082946e+01 3.8151204032e+01 5.4424288455e+01
859 1 1 7.6394400000e-01 6.3434900985e+01 4.5398669439e+01 7.9921323871e+00
860 1 1 7.6394400000e-01 3.1487427301e+01 3.1918866327e+01 4.8590978251e+01
861 1 1 7.6394400000e-01 6.3490235493e+01 7.8318345810e+00 6.3020065290e+01
862 1 1 7.6394400000e-01 5.8607032872e+01 3.1562032781e+01 1.1056646609e+01
863 1 1 7.6394400000e-01 4.7891980075e+01 3.4070521462e+01 1.5617311633e+01
864 1 1 7.6394400000e-01 1.9695292706e+01 5.6563233959e+01 3.3931543782e+01
865 1 1 7.6394400000e-01 4.2501681254e+01 1.1719949713e+01 1.1093175165e+01
866 1 1 7.6394400000e-01 2.5578505525e+01 4.8694846446e+01 4.4798927792e+01
867 1 1 7.6394400000e-01 4.8562060285e+01 4.8923022519e+01 2.9821526332e+01
868 1 1 7.6394400000e-01 4.5541721021e+01 2.1793993855e+01 5.9726878919e+01
869 1 1 7.6394400000e-01 4.3117346294e+01 5.9125779523e+00 1.6321818496e+01
870 1 1 7.6394400000e-01 4.9994155136e+00 2.3019160067e+01 1.1785364928e+01
871 1 1 7.6394400000e-01 2.0590686276e+01 4.2835929034e+01 4.3638268025e+01
872 1 1 7.6394400000e-01 7.7760218231e+00 5.8335953280e+01 4.4575564706e+01
873 1 1 7.6394400000e-01 3.7941759305e+01 2.6437124586e+00 3.0877155242e+01
874 1 1 7.6394400000e-01 2.1465171339e+01 4.8005842535e+01 1.7454846045e+01
875 1 1 7.6394400000e-01 1.5732653046e+01 1.0548083336e+01 1.0386612418e+01
876 1 1 7.6394400000e-01 4.7198552189e+01 3.2187648608e+01 4.5026421135e+01
877 1 1 7.6394400000e-01 3.7315777968e+01 6.0216387783e+01 6.2154658343e+01
878 1 1 7.6394400000e-01 1.1940975526e+01 2.8418479072e+00 2.4342617131e+01
879 1 1 7.6394400000e-01 1.8264091119e+01 5.7325250652e+01 1.5054223922e+01
880 1 1 7.6394400000e-01 4.4258516261e+01 5.2012282943e+01 3.3857167581e+01
881 1 1 7.6394400000e-01 1.2065200738e+00 4.6664860556e+01 3.7839868348e+01
882 1 1 7.6394400000e-01 6.2004358842e+01 3.1862846142e+01 6.0452739562e+01
883 1 1 7.6394400000e-01 1.5161068399e+01 3.8555440333e+01 4.5227174299e+01
884 1 1 7.6394400000e-01 1.7640827049e+01 2.7279425623e+01 4.1180896929e+01
885 1 1 7.6394400000e-01 2.4801525011e+01 1.2945401925e+01 5.3860595264e+01
886 1 1 7.6394400000e-01 3.3000793140e+01 7.5809791649e+00 5.4561889989e+01
887 1 1 7.6394400000e-01 4.6161104852e+01 3.0600343776e+01 3.4833233120e+01
888 1 1 7.6394400000e-01 5.0265772443e+01 1.3769093895e+01 5.9090509408e+01
889 1 1 7.6394400000e-01 1.7801481079e+01 2.5654182998e+00 4.2223194399e+01
890 1 1 7.6394400000e-01 5.6306151041e+01 2.5451486781e+01 6.4719776163e+00
891 1 1 7.6394400000e-01 2.7237843753e+01 4.6234358218e+01 3.9977858706e+01
892 1 1 7.6394400000e-01 8.0235522676e+00 2.7193838224e+01 5.5269297953e+01
893 1 1 7.6394400000e-01 5.2945410676e+01 6.1091920025e+01 6.0122553701e+01
894 1 1 7.6394400000e-01 1.8469639173e+01 1.0675948533e+01 4.6811542932e+01
895 1 1 7.6394400000e-01 1.8856751724e+01 4.7453413658e+01 1.4964082253e+00
896 1 1 7.6394400000e-01 2.8261376447e-01 1.6807502273e+01 1.2169818419e+01
897 1 1 7.6394400000e-01 5.6078938784e+01 5.2696264917e+01 6.3063277180e+01
898 1 1 7.6394400000e-01 4.4296886699e+01 4.9148629853e+01 1.6001085141e+01
899 1 1 7.6394400000e-01 4.4509314082e+01 6.2524994572e+01 6.1047350282e+01
900 1 1 7.6394400000e-01 6.3490895099e+00 5.8486900923e+01 2.3173703229e+01
901 1 1 7.6394400000e-01 1.0378756353e+01 3.0363117156e+01 3.9253592004e+01
902 1 1 7.6394400000e-01 6.3016255001e+01 1.2076862318e+01 4.3409161892e+01
903 1 1 7.6394400000e-01 5.8828491424e+00 4.1800962891e+01 9.0151500173e+00
904 1 1 7.6394400000e-01 2.2094109191e+01 5.3955279686e+01 5.8957696492e+01
905 1 1 7.6394400000e-01 3.9070452174e+01 4.2410255413e+01 1.5786282386e+00
906 1 1 7.6394400000e-01 4.3680339296e+01 4.9021111513e+01 5.1795306221e+01
907 1 1 7.6394400000e-01 5.3248484834e+01 6.0538922393e+01 1.1226174752e+01
908 1 1 7.6394400000e-01 4.1567045803e+01 6.1398241590e+01 1.0818883533e+01
909 1 1 7.6394400000e-01 5.1924333713e+01 4.7373229678e+01 9.2014170701e-01
910 1 1 7.6394400000e-01 5.3259397194e+01 4.0703803186e+01 1.9198261226e+00
911 1 1 7.6394400000e-01 5.8468480634e+01 4.8564468288e+01 6.0010400069e+01
912 1 1 7.6394400000e-01 4.1412250553e+01 2.0153232583e+01 2.3298256920e+01
913 1 1 7.6394400000e-01 3.4685407277e+01 5.9370731412e+01 7.6991064545e+00
914 1 1 7.6394400000e-01 1.9135642960e+01 4.0838015973e+01 1.5719442872e+01
915 1 1 7.6394400000e-01 4.1089839256e+01 4.5708753328e+00 4.5466170126e+01
916 1 1 7.6394400000e-01 2.5918663571e+01 1.7449476751e+01 2.5405018893e+01
917 1 1 7.6394400000e-01 4.9073606774e+01 5.9724736507e+01 5.5886676479e+01
918 1 1 7.6394400000e-01 8.2406128034e+00 5.3843979334e+01 5.5430814346e+01
919 1 1 7.6394400000e-01 5.8654676906e+01 5.4536762457e+01 4.3529850884e+01
920 1 1 7.6394400000e-01 6.1648232613e+01 5.6112396012e+01 5.7790218721e+00
921 1 1 7.6394400000e-01 6.0069523301e+01 4.1076129418e+01 1.5138600312e+01
922 1 1 7.6394400000e-01 8.3092998846e+00 3.3394824067e+01 5.2815380142e+01
923 1 1 7.6394400000e-01 5.9143911902e+01 3.2545720838e+01 2.4858354831e+01
924 1 1 7.6394400000e-01 2.5202263294e+01 2.9078385764e+01 3.4749530792e+01
925 1 1 7.6394400000e-01 2.5717811010e+01 2.9727952419e+01 3.1826846273e+01
926 1 1 7.6394400000e-01 2.2230440791e+01 2.7522371339e+01 2.3921229252e+01
927 1 1 7.6394400000e-01 3.0821450340e+01 6.4058939163e+00 1.8307887653e+01
928 1 1 7.6394400000e-01 4.9209334476e+01 5.8290637195e+00 8.8012213933e+00
929 1 1 7.6394400000e-01 2.4086620694e+01 1.5220065111e+01 3.8261102848e+00
930 1 1 7.6394400000e-01 1.7957055586e+00 4.3872093788e+01 2.4254672012e+01
931 1 1 7.6394400000e-01 3.1020017469e+01 6.1504024345e+01 2.5442815828e+01
932 1 1 7.6394400000e-01 6.3408290425e+01 3.1384068008e+01 5.2192929909e+01
933 1 1 7.6394400000e-01 1.2489081929e+01 3.2525216677e+01 3.2553807647e+01
934 1 1 7.6394400000e-01 3.8432504066e+01 4.4614849271e+00 4.8708839784e+01
935 1 1 7.6394400000e-01 6.0631292579e+01 3.6842442539e+01 2.3250020313e+01
936 1 1 7.6394400000e-01 3.8297909358e+01 2.0831674172e+01 5.5173685690e+01
937 1 1 7.6394400000e-01 5.9531667328e+01 4.0578344389e+01 2.7910479763e+01
938 1 1 7.6394400000e-01 3.1847393331e+01 5.9005595684e+01 4.3729401641e+01
939 1 1 7.6394400000e-01 3.7441261902e+01 1.2993252429e+01 3.8191681616e+01
940 1 1 7.6394400000e-01 3.5525095770e+01 5.4122287712e+01 4.8448571031e+01
941 1 1 7.6394400000e-01 2.8644664502e+01 2.2108545375e+01 3.4948869075e+01
942 1 1 7.6394400000e-01 2.6773381710e+01 9.5405543029e-01 5.2248152307e+01
943 1 1 7.6394400000e-01 3.4258415600e+01 4.3454118800e+01 3.4532030653e+01
944 1 1 7.6394400000e-01 2.8970387451e+01 4.4187634848e+01 4.6741525688e+00
945 1 1 7.6394400000e-01 5.5678530957e+01 3.1907600517e+01 5.5328703413e+00
946 1 1 7.6394400000e-01 2.5377039653e+01 8.2850793493e+00 2.0626004453e+01
947 1 1 7.6394400000e-01 4.2914100568e+01 2.6443914904e+01 3.5755275959e+01
948 1 1 7.6394400000e-01 2.2997043962e+01 2.2504559478e+01 2.0402632563e+01
949 1 1 7.6394400000e-01 3.0583761708e+01 3.5823009026e+01 4.7312195003e+01
950 1 1 7.6394400000e-01 4.7373549480e+01 4.7292483286e+01 3.2208306774e+00
951 1 1 7.6394400000e-01 2.5107336913e+01 3.3876153254e+01 8.9126880272e+00
952 1 1 7.6394400000e-01 2.6674528447e+01 6.1394239947e+01 3.4372865679e+01
953 1 1 7.6394400000e-01 4.7461647254e+01 3.2757622586e+00 2.8736831270e+01
954 1 1 7.6394400000e-01 5.8532237575e+01 4.3296687977e+01 4.5112541088e+01
955 1 1 7.6394400000e-01 1.1615024816e+01 9.6729953965e-01 6.0648011232e+01
956 1 1 7.6394400000e-01 2.7314070779e+00 1.7337051004e+01 5.7386413712e+01
957 1 1 7.6394400000e-01 1.3077154913e+00 3.6349147658e+01 3.5176460192e+01
958 1 1 7.6394400000e-01 5.7545697926e+01 4.4551789971e+01 5.8036537400e+01
959 1 1 7.6394400000e-01 6.1453257831e+01 3.1753023310e+01 4.5346043235e+01
960 1 1 7.6394400000e-01 4.0574286389e+01 3.5711610873e+01 2.0352330139e+01
961 1 1 7.6394400000e-01 1.1682713248e+01 4.1033565914e+01 8.7563910059e+00
962 1 1 7.6394400000e-01 4.4570696997e+01 3.8399160909e+00 5.7658600191e+01
963 1 1 7.6394400000e-01 6.1214513353e+01 8.6256397242e+00 5.3935099288e+00
964 1 1 7.6394400000e-01 5.9533967819e+01 1.2788299588e+01 5.3069890528e+01
965 1 1 7.6394400000e-01 3.2499510323e+01 3.7010018852e+01 1.2808447582e+01
966 1 1 7.6394400000e-01 5.8969504476e+01 5.8374504608e+01 8.9297444152e+00
967 1 1 7.6394400000e-01 2.4086790991e+01 4.4792660842e+01 3.6779954435e+01
968 1 1 7.6394400000e-01 2.3220638401e+01 4.9380064993e+01 4.9862624076e+01
969 1 1 7.6394400000e-01 3.4652262838e+01 2.8530013355e+01 1.3299733883e+01
970 1 1 7.6394400000e-01 4.8814213368e+01 9.0460303083e+00 2.2243842666e+01
971 1 1 7.6394400000e-01 5.2863788682e+01 3.5144099717e+01 6.8023481105e+00
972 1 1 7.6394400000e-01 5.7831189465e+01 3.0846538765e+01 6.1626922854e+00
973 1 1 7.6394400000e-01 3.6728390475e+01 5.3733924684e+01 4.4803692942e+01
974 1 1 7.6394400000e-01 1.3916003571e+01 5.2715996997e+01 3.7477354995e+01
975 1 1 7.6394400000e-01 3.9457370474e+01 1.6135954564e+01 3.1264993391e+01
976 1 1 7.6394400000e-01 2.6607364937e+01 6.1845756683e+00 4.9688772377e+01
977 1 1 7.6394400000e-01 3.5158652699e+01 3.8787531168e+01 2.8473774712e+01
978 1 1 7.6394400000e-01 2.9086325671e+01 4.7448277709e+01 1.3707966651e+00
979 1 1 7.6394400000e-01 2.0763104649e+01 2.3625985593e+00 1.1067886759e+00
980 1 1 7.6394400000e-01 4.5296319531e+01 1.6122460351e+01 5.0151420302e+01
981 1 1 7.6394400000e-01 2.7987365343e+01 3.0674303220e+01 9.8809024983e+00
982 1 1 7.6394400000e-01 4.5764113268e+01 5.7963318482e+01 1.1690212493e+00
983 1 1 7.6394400000e-01 5.7151437361e+01 5.6006972709e+01 1.5589349782e+00
984 1 1 7.6394400000e-01 8.7964769635e+00 3.7211400892e+01 1.2551253616e+01
985 1 1 7.6394400000e-01 8.5087878065e+00 2.5487472439e+01 3.5501629048e+00
986 1 1 7.6394400000e-01 2.4489246776e+01 3.6876063379e+01 3.2500863393e+00
987 1 1 7.6394400000e-01 4.9872674962e+01 3.3769701050e+01 1.5030218559e+01
988 1 1 7.6394400000e-01 2.4229577690e-01 5.4123471387e+01 6.0456130540e+01
989 1 1 7.6394400000e-01 4.8003876500e+01 5.9976051587e+01 5.8385634398e+01
990 1 1 7.6394400000e-01 6.2054094767e+01 4.3719122910e+01 5.8359452359e+00
991 1 1 7.6394400000e-01 2.3814025599e+01 2.5612477547e+01 4.8853171217e+01
992 1 1 7.6394400000e-01 9.0868113983e+00 1.8365094684e+01 2.9123984613e+01
993 1 1 7.6394400000e-01 5.6730035190e+01 2.5804130344e+01 2.0218624269e+01
994 1 1 7.6394400000e-01 6.5646196398e+00 2.5584794825e+00 5.1705029055e+01
995 1 1 7.6394400000e-01 4.2944432119e+01 4.7685156616e+01 4.0804245720e+01
996 1 1 7.6394400000e-01 2.1406492259e+01 1.5012032314e+01 4.9328135865e+01
997 1 1 7.6394400000e-01 3.5912794167e+01 3.3826380864e+01 3.8656843742e+00
998 1 1 7.6394400000e-01 2.8181140199e+00 4.0091693894e+01 3.9706130189e+01
999 1 1 7.6394400000e-01 3.7319852188e+01 3.7708514165e+01 3.0704428745e+01
1000 1 1 7.6394400000e-01 4.9324612232e+01 4.5398035072e+01 5.7069003280e+01
1001 1 1 7.6394400000e-01 2.1524915354e+01 4.8641070329e+01 1.0218609957e+01
1002 1 1 7.6394400000e-01 4.8864482386e+01 4.9071203002e+00 6.3825513554e+01
1003 1 1 7.6394400000e-01 1.2850585451e+01 8.5178422287e+00 5.0464854011e+01
1004 1 1 7.6394400000e-01 1.7781110267e+01 5.9101259210e+01 5.0056493449e+01
1005 1 1 7.6394400000e-01 1.4716762381e+00 6.2541668229e+01 1.2144103833e+01
1006 1 1 7.6394400000e-01 2.2736300339e+01 2.6938269653e+01 4.1727959741e+01
1007 1 1 7.6394400000e-01 2.3276105283e+01 5.4731559156e+01 2.6409421531e+01
1008 1 1 7.6394400000e-01 4.3464225158e+01 6.8157275842e+00 3.6179205023e+01
1009 1 1 7.6394400000e-01 2.7353973885e+01 5.2304093343e+01 5.0661893930e+01
1010 1 1 7.6394400000e-01 5.9192765816e+01 5.0719968405e+01 4.4545114295e+01
1011 1 1 7.6394400000e-01 2.9621916672e+01 1.2989261138e+01 1.5078600587e+01
1012 1 1 7.6394400000e-01 2.9857104024e+01 3.0436855713e+01 7.4917731011e+00
1013 1 1 7.6394400000e-01 3.1390015213e+00 9.6142890757e+00 4.8640089425e+01
1014 1 1 7.6394400000e-01 4.3893575445e+01 1.8855841649e+01 1.7444428794e+00
1015 1 1 7.6394400000e-01 4.0153551722e+01 4.5054364078e+01 1.6189165649e+01
1016 1 1 7.6394400000e-01 3.5301596635e+00 4.6040246133e+01 5.5401516823e+01
1017 1 1 7.6394400000e-01 5.4923265039e+01 2.5794873158e+01 9.6060261885e-01
1018 1 1 7.6394400000e-01 1.8271386932e+01 4.3642185904e+01 6.0073171331e+01
1019 1 1 7.6394400000e-01 2.6278328615e+01 1.5256336018e+00 1.9696117108e+01
1020 1 1 7.6394400000e-01 5.1720166890e+01 4.6260016214e+01 5.3134220335e+01
1021 1 1 7.6394400000e-01 5.8954534202e+01 2.0108797211e+01 3.3238453004e+01
1022 1 1 7.6394400000e-01 3.2025022892e+01 1.7934205242e+01 5.3391591241e+01
1023 1 1 7.6394400000e-01 3.2943300926e+01 5.0408941328e+01 5.4752547492e+01
1024 1 1 7.6394400000e-01 2.4294873678e+00 5.3324094790e+01 5.4816332071e+01
1025 1 1 7.6394400000e-01 2.1556292810e+01 5.7561237178e+01 3.3700249706e+01
1026 1 1 7.6394400000e-01 5.4191103696e+00 9.8181038396e+00 7.8930508055e+00
1027 1 1 7.6394400000e-01 9.7903668145e+00 5.2814080951e+01 4.0299782429e+01
1028 1 1 7.6394400000e-01 5.8944226438e+01 3.3448312942e+01 6.1774915768e+00
1029 1 1 7.6394400000e-01 4.1571130078e+01 3.9664939373e+01 3.2927484571e+01
1030 1 1 7.6394400000e-01 8.5013574972e+00 8.0338384761e+00 2.4952193214e+01
1031 1 1 7.6394400000e-01 1.1878051615e+01 9.1433007767e+00 3.7727770515e+01
1032 1 1 7.6394400000e-01 5.3870823460e+01 1.3918413273e+01 1.2421040281e+01
1033 1 1 7.6394400000e-01 3.7039788027e+01 5.1898944059e+01 4.8101448612e+01
1034 1 1 7.6394400000e-01 3.6490955634e+01 9.9191546152e+00 5.0180721706e+01
1035 1 1 7.6394400000e-01 1.6492103590e+01 5.2309763141e+01 6.0422962842e+00
1036 1 1 7.6394400000e-01 5.8878422174e+01 6.2127837244e+01 4.8838140725e+01
1037 1 1 7.6394400000e-01 2.2870446107e+01 4.7227918851e+01 4.6339200062e+01
1038 1 1 7.6394400000e-01 6.3867596450e+01 1.6170334278e+01 2.3520440876e+01
1039 1 1 7.6394400000e-01 6.4597987430e+00 5.8003571870e+01 4.1218097264e+01
1040 1 1 7.6394400000e-01 5.0051907135e+01 4.6662433761e+01 7.7566020065e+00
1041 1 1 7.6394400000e-01 2.1217929111e+01 5.7557599860e+01 1.7559018334e+01
1042 1 1 7.6394400000e-01 4.6370055218e+01 1.9166574743e+01 6.1728979637e+01
1043 1 1 7.6394400000e-01 2.6188976834e+01 4.4823759753e+01 5.7100819361e+00
1044 1 1 7.6394400000e-01 4.2725018056e+01 3.4448570105e+01 2.5920698870e+01
1045 1 1 7.6394400000e-01 1.8773067651e+01 4.6283727541e+00 2.2409985007e+01
1046 1 1 7.6394400000e-01 4.9456615525e+01 2.7438633134e+01 2.1856936489e+01
1047 1 1 7.6394400000e-01 3.9729842052e+01 1.0461451585e+01 4.6093715273e+01
1048 1 1 7.6394400000e-01 3.7261862536e+01 1.0854524078e+01 3.8247156857e+01
1049 1 1 7.6394400000e-01 5.3785751843e+01 3.1926047734e+01 5.5046252038e+01
1050 1 1 7.6394400000e-01 2.2096061669e+01 3.4758707689e+01 5.2625795239e+01
1051 1 1 7.6394400000e-01 4.9758136281e+01 2.6982373045e+01 3.8908005338e+01
1052 1 1 7.6394400000e-01 5.5427180949e+01 5.5818966776e+01 1.4579077478e+01
1053 1 1 7.6394400000e-01 1.8559992339e+01 6.0946050549e+01 4.5534124206e+01
1054 1 1 7.6394400000e-01 4.9162878865e+01 3.6391509141e+01 1.4783066011e+01
1055 1 1 7.6394400000e-01 7.0756833144e-01 5.1934622864e-01 9.9867285887e+00
1056 1 1 7.6394400000e-01 1.3331923612e+01 2.0068825190e+01 5.8886728262e+01
1057 1 1 7.6394400000e-01 2.4734395625e+01 3.8262430309e+01 4.4343514271e+01
1058 1 1 7.6394400000e-01 1.9831212843e+01 5.4364496643e+01 3.8714764812e+00
1059 1 1 7.6394400000e-01 6.5262548343e+00 5.2923212470e+01 1.9804576860e+01
1060 1 1 7.6394400000e-01 5.2101126970e+01 1.1244259817e+01 4.5941741656e+00
1061 1 1 7.6394400000e-01 5.0351699446e+01 3.5376145205e+01 5.5013226456e+01
1062 1 1 7.6394400000e-01 5.8420937472e+01 1.5620861813e+01 6.7797330879e+00
1063 1 1 7.6394400000e-01 1.3703018309e+00 9.8226175631e+00 4.9313695886e+01
1064 1 1 7.6394400000e-01 1.4433398797e+01 4.1853400060e+00 3.1890593768e+00
1065 1 1 7.6394400000e-01 8.9364419358e+00 3.9218531694e+01 4.9637892048e+01
1066 1 1 7.6394400000e-01 5.7833306643e+01 5.6798232491e+01 4.6238386114e+01
1067 1 1 7.6394400000e-01 2.9550408334e+01 3.8929521844e+01 2.7410394422e+01
1068 1 1 7.6394400000e-01 2.8758790742e+01 4.2617720429e+01 2.5024261436e+00
1069 1 1 7.6394400000e-01 1.8617825275e+01 4.9894338991e+01 2.0599392197e+01
1070 1 1 7.6394400000e-01 5.0430260441e+00 6.5537129182e+00 1.6802712306e+01
1071 1 1 7.6394400000e-01 1.8480582970e+01 1.4273959708e+01 2.8983947781e+01
1072 1 1 7.6394400000e-01 4.7430427689e+01 2.5816742653e+01 2.0512290369e+01
1073 1 1 7.6394400000e-01 5.3199292043e+00 6.3517278476e+01 1.7633704030e+01
1074 1 1 7.6394400000e-01 2.6561836946e+01 3.4742880447e+01 3.6050831049e+01
1075 1 1 7.6394400000e-01 3.4884181737e+00 2.0380827261e+01 3.8420597220e+01
1076 1 1 7.6394400000e-01 3.8632962541e+01 2.8479446358e+01 3.6582232140e+01
1077 1 1 7.6394400000e-01 1.0158353624e+01 4.9614136639e+01 3.7502700976e+01
1078 1 1 7.6394400000e-01 4.9700580349e+01 3.1330201033e+00 3.7505947274e+01
1079 1 1 7.6394400000e-01 6.1967226391e+01 7.7599128581e+00 1.8840091262e+01
1080 1 1 7.6394400000e-01 3.2816423545e+01 3.0772096104e+01 5.8487334030e+01
1081 1 1 7.6394400000e-01 2.7574991433e+01 4.0081297851e+01 1.0902254178e+01
1082 1 1 7.6394400000e-01 2.8953490754e+01 5.6120449302e+01 6.2838754591e+01
1083 1 1 7.6394400000e-01 8.3109772286e+00 5.5323841298e+01 3.6997252500e+01
1084 1 1 7.6394400000e-01 1.9667972128e+01 2.7513580323e+01 6.2582021274e+00
1085 1 1 7.6394400000e-01 5.4164213978e+01 1.7347932935e+01 5.3482840583e+01
1086 1 1 7.6394400000e-01 4.5841472557e+01 6.0002532054e+01 4.5580385995e+01
1087 1 1 7.6394400000e-01 1.2325809673e+01 4.4246174225e+00 4.9303139794e+01
1088 1 1 7.6394400000e-01 5.8012384642e-01 1.2159051025e+01 5.0570851289e+01
1089 1 1 7.6394400000e-01 1.7947590294e+01 3.7785496615e+01 1.2661384791e+01
1090 1 1 7.6394400000e-01 2.7664149618e+00 9.8121946382e+00 3.6536168945e+01
1091 1 1 7.6394400000e-01 2.6452864768e+01 4.4243778412e+01 4.4623299836e+01
1092 1 1 7.6394400000e-01 6.1517899718e+01 4.5350337699e+01 5.5232286870e+01
1093 1 1 7.6394400000e-01 4.6779112532e+01 5.9482123637e+01 6.0867260100e+01
1094 1 1 7.6394400000e-01 1.5634489997e+01 4.6123654334e+00 6.3532127469e+01
1095 1 1 7.6394400000e-01 7.0831611390e+00 4.5123968683e+01 1.4266378646e+01
1096 1 1 7.6394400000e-01 5.8720537188e+01 3.8841788567e+00 2.7287195227e+01
1097 1 1 7.6394400000e-01 5.5338813429e+01 1.7893834364e+01 1.3371633629e+00
1098 1 1 7.6394400000e-01 1.1061579349e+00 6.1571716753e+01 6.0108071858e+01
1099 1 1 7.6394400000e-01 6.3372130677e+01 3.5037516784e+01 1.2909878941e+01
1100 1 1 7.6394400000e-01 4.5578922679e+01 2.9928947541e+01 5.5145612334e+01
1101 1 1 7.6394400000e-01 9.0640920041e+00 3.1293164400e+01 1.2911064473e+01
1102 1 1 7.6394400000e-01 5.2006408357e+01 4.4972642510e+01 6.2634115496e+01
1103 1 1 7.6394400000e-01 5.1096269358e+01 1.3058090445e+01 4.9801965350e+01
1104 1 1 7.6394400000e-01 6.2961556422e+01 4.5075394515e+00 1.2020343443e+01
1105 1 1 7.6394400000e-01 1.6429973840e+01 9.4064218380e+00 3.4656886090e+01
1106 1 1 7.6394400000e-01 6.3857745299e+01 2.4329323128e+01 5.9605892044e+00
1107 1 1 7.6394400000e-01 6.2028482681e+01 5.1261860708e+01 6.4585550207e+00
1108 1 1 7.6394400000e-01 3.2658317891e+01 5.6214918741e-01 4.8727712503e+01
1109 1 1 7.6394400000e-01 5.8700459131e+01 4.5462297807e+01 1.1265028115e+01
1110 1 1 7.6394400000e-01 5.9163486154e+00 5.4600015369e+01 3.4441103524e+01
1111 1 1 7.6394400000e-01 2.1440810280e+00 1.8172516007e+01 2.9300233282e+01
1112 1 1 7.6394400000e-01 2.9582420988e+01 4.8507003945e+01 6.0455016431e+01
1113 1 1 7.6394400000e-01 3.1465733427e+01 4.8683031461e+01 4.7557422932e+01
1114 1 1 7.6394400000e-01 4.1809599383e+01 2.0752252653e+01 3.0158396594e+01
1115 1 1 7.6394400000e-01 8.1882766081e+00 6.0168058271e+01 4.0855025731e+01
1116 1 1 7.6394400000e-01 1.9580444662e+00 2.8449538570e+00 6.9325727402e+00
1117 1 1 7.6394400000e-01 5.2010488683e+01 4.3408929410e+01 4.7847568488e+01
1118 1 1 7.6394400000e-01 1.1337876336e+01 2.5508577833e+01 2.3763410359e+01
1119 1 1 7.6394400000e-01 4.8719232670e+01 1.4831642272e+01 1.6074943296e+01
1120 1 1 7.6394400000e-01 3.9094755902e+01 1.9753727354e+01 2.0373447636e+01
1121 1 1 7.6394400000e-01 2.7437297897e+01 2.7213599557e+01 2.8425525532e+01
1122 1 1 7.6394400000e-01 2.4556908179e+01 6.2046203420e+01 6.1821135793e+01
1123 1 1 7.6394400000e-01 5.8915616851e+01 1.9366392872e+01 4.2371854503e+01
1124 1 1 7.6394400000e-01 6.1415223000e+01 4.7919652451e+01 2.6527183214e+01
1125 1 1 7.6394400000e-01 3.9333305382e+01 2.9502736335e+01 4.9278833630e+01
1126 1 1 7.6394400000e-01 1.3291759750e+01 1.8339790740e+01 5.7412001001e+01
1127 1 1 7.6394400000e-01 2.0254338514e+01 3.9512452318e+01 1.7082578097e+01
1128 1 1 7.6394400000e-01 1.8593654824e+01 2.4263998198e+01 5.1672364055e+01
1129 1 1 7.6394400000e-01 2.9552387198e+01 3.7548915460e+01 9.5404452084e+00
1130 1 1 7.6394400000e-01 3.4720572122e+00 2.3140663400e+00 5.2630392848e+01
1131 1 1 7.6394400000e-01 1.1182279075e+01 2.4328945725e+00 2.7901390157e+01
1132 1 1 7.6394400000e-01 1.0324481163e+01 1.1048027311e+01 4.3330406476e+01
1133 1 1 7.6394400000e-01 1.0351405727e+00 1.8261959555e+01 3.7798286024e+01
1134 1 1 7.6394400000e-01 1.8296059376e-01 5.2090141644e+01 3.2359693037e+01
1135 1 1 7.6394400000e-01 2.9671289559e+01 3.4653597635e+01 2.4066218289e+01
1136 1 1 7.6394400000e-01 2.8986801921e+01 2.6910030816e+01 2.7217477795e+00
1137 1 1 7.6394400000e-01 2.6000012183e+01 5.3390118697e+01 1.1099920288e+01
1138 1 1 7.6394400000e-01 3.8901365112e+01 1.0926981659e+01 3.1641368033e+01
1139 1 1 7.6394400000e-01 1.5007780665e+01 6.0547166404e+01 4.3236885594e+01
1140 1 1 7.6394400000e-01 3.3380683062e+01 3.2944704008e+01 6.4958163120e+00
1141 1 1 7.6394400000e-01 2.3699473977e+01 6.0336577497e+01 1.8211014608e+01
1142 1 1 7.6394400000e-01 5.4480242567e+01 8.4692786491e+00 5.2097167223e+01
1143 1 1 7.6394400000e-01 4.2206066346e+01 5.1679907822e+01 4.5697058476e+01
1144 1 1 7.6394400000e-01 1.9287986538e+01 2.7561111421e+01 1.1932088663e+00
1145 1 1 7.6394400000e-01 4.5938696317e+01 2.4238951056e+01 4.1348572698e+01
1146 1 1 7.6394400000e-01 4.6557915490e+01 6.0918973676e+01 4.9674112028e+01
1147 1 1 7.6394400000e-01 3.6848949750e+01 2.2437826735e+01 1.4164340719e+01
1148 1 1 7.6394400000e-01 2.1528628408e+01 1.4051894449e+01 3.8798262302e+00
1149 1 1 7.6394400000e-01 5.7803481884e+01 5.1498660049e+01 1.2264345508e+01
1150 1 1 7.6394400000e-01 2.1315099574e+01 6.2493891751e+01 1.1571002383e+01
1151 1 1 7.6394400000e-01 4.3839278496e+01 4.1746555243e+01 1.9729106152e+01
1152 1 1 7.6394400000e-01 5.0113408591e+01 1.2337013402e+01 4.3403628505e+01
1153 1 1 7.6394400000e-01 3.6332178137e+00 4.8933347216e+01 2.6551666165e+01
1154 1 1 7.6394400000e-01 2.0864765667e+01 1.3126338219e+01 4.7920741022e+01
1155 1 1 7.6394400000e-01 3.1236918896e+01 5.8186740419e+01 5.2856305906e+01
1156 1 1 7.6394400000e-01 3.5395712723e+01 4.2035552618e+01 3.2978647849e+01
1157 1 1 7.6394400000e-01 1.0430474789e+01 3.6733883250e+01 4.0380580260e+01
1158 1 1 7.6394400000e-01 1.0698401662e+01 5.6134204330e+01 4.4686485506e+01
1159 1 1 7.6394400000e-01 1.0859299911e+00 7.8234151443e+00 5.2664267359e+01
1160 1 1 7.6394400000e-01 3.5002828311e+01 1.7961047104e+01 3.9401790877e+01
1161 1 1 7.6394400000e-01 5.6269358017e+01 4.9572946726e+01 1.4671923570e+01
1162 1 1 7.6394400000e-01 2.4980502902e+01 1.2244891334e+01 4.7225159986e+01
1163 1 1 7.6394400000e-01 1.0079634473e+01 2.0991058932e+01 1.8270137621e+01
1164 1 1 7.6394400000e-01 2.9144631556e+01 3.8594022305e+01 4.7911352919e+01
1165 1 1 7.6394400000e-01 5.8246226441e+01 1.3339309443e+00 2.2511780285e+01
1166 1 1 7.6394400000e-01 3.4202359015e+01 6.0251526876e+01 5.9372963913e+01
1167 1 1 7.6394400000e-01 3.6639448710e+01 1.6471505626e+01 4.5775038565e+01
1168 1 1 7.6394400000e-01 2.9468994657e+01 4.0554590661e+01 6.1080009904e+00
1169 1 1 7.6394400000e-01 4.1274073209e+01 5.2812079744e+01 4.0593939619e+01
1170 1 1 7.6394400000e-01 6.4262299256e-02 6.3912767653e+01 1.2478021773e+01
1171 1 1 7.6394400000e-01 3.3734632511e+01 3.2390833751e+01 1.4788230526e+01
1172 1 1 7.6394400000e-01 3.9546994213e+01 2.7569444409e+01 4.2724590849e+01
1173 1 1 7.6394400000e-01 1.2523104634e+00 4.7662416663e+01 5.9348164491e+01
1174 1 1 7.6394400000e-01 5.7271418934e+01 3.1535682685e+01 2.8543016947e+01
1175 1 1 7.6394400000e-01 4.1435475989e+01 7.2850108646e+00 4.3514944107e+01
1176 1 1 7.6394400000e-01 2.6003624575e+01 2.3324960337e+01 4.3363039265e+01
1177 1 1 7.6394400000e-01 1.0780058560e+01 1.1013473664e+01 6.0895772129e+01
1178 1 1 7.6394400000e-01 5.4218436028e+01 3.0815728747e+01 4.9082679499e+01
1179 1 1 7.6394400000e-01 2.5853641816e+01 4.4490453534e+01 5.7456538448e+01
1180 1 1 7.6394400000e-01 6.0165199000e+01 6.0113186104e+01 2.7258616438e+01
1181 1 1 7.6394400000e-01 5.1954887539e+01 5.5738663389e+01 2.0408637392e+01
1182 1 1 7.6394400000e-01 6.0716146554e+01 4.3616131024e+01 2.7370538232e+01
1183 1 1 7.6394400000e-01 3.5958259578e+01 4.7927954990e+01 3.2945533197e+01
1184 1 1 7.6394400000e-01 3.5921993711e+01 4.3001139616e+01 5.3254825233e+01
1185 1 1 7.6394400000e-01 2.6744973603e+01 2.3433731372e+01 3.4395587763e+01
1186 1 1 7.6394400000e-01 1.9379403456e+01 5.3730681526e+01 6.3638267607e+00
1187 1 1 7.6394400000e-01 6.1000712681e+01 3.8280211143e+00 4.1145703755e+01
1188 1 1 7.6394400000e-01 6.8827457606e+00 1.0796743074e+01 2.1504924361e+01
1189 1 1 7.6394400000e-01 9.4085758932e+00 1.5374399553e+01 4.8451519145e+00
1190 1 1 7.6394400000e-01 1.9609446052e+01 6.2797273556e+01 2.8355061288e+01
1191 1 1 7.6394400000e-01 3.2765450254e+01 3.9956882981e+01 1.8790891049e+00
1192 1 1 7.6394400000e-01 3.9987462102e+01 1.4711105807e+01 2.4458491435e+01
1193 1 1 7.6394400000e-01 6.3542366723e+01 2.7354750103e+01 4.9217480992e+01
1194 1 1 7.6394400000e-01 8.2365294155e+00 2.2578484452e+01 1.5237536254e+00
1195 1 1 7.6394400000e-01 4.7597006090e+01 1.5191811679e+01 5.1560715331e+01
1196 1 1 7.6394400000e-01 5.9779731902e+01 7.0775069130e+00 2.4176019213e+01
1197 1 1 7.6394400000e-01 5.9458904953e+01 8.8704825396e+00 2.6659820129e+01
1198 1 1 7.6394400000e-01 1.3773931180e+01 4.2557813284e+01 3.3061103807e+01
1199 1 1 7.6394400000e-01 4.6716314349e+01 4.3196389220e+01 2.2502637835e+01
1200 1 1 7.6394400000e-01 4.9672735360e+01 3.0070183351e+01 6.1138952395e+01
1201 1 1 7.6394400000e-01 2.5729108388e+01 5.9472755007e+01 2.0754037861e+01
1202 1 1 7.6394400000e-01 3.4417770528e+01 3.8881926913e+00 1.2220462303e+01
1203 1 1 7.6394400000e-01 1.1050290635e+01 6.8167028649e-01 3.1767066088e+01
1204 1 1 7.6394400000e-01 5.5681080407e-01 7.8875299847e+00 3.3368579348e+01
1205 1 1 7.6394400000e-01 4.3703582531e+01 9.7268918351e+00 3.8412343047e+01
1206 1 1 7.6394400000e-01 8.8745534189e+00 1.0583631836e+01 3.2369657062e+01
1207 1 1 7.6394400000e-01 5.5448108669e+01 2.4281506093e+01 5.7482029815e+01
1208 1 1 7.6394400000e-01 6.3469197367e+01 2.5984342953e+01 3.0012007833e+01
1209 1 1 7.6394400000e-01 5.1854853756e+01 2.4426560357e+01 4.4653138638e+01
1210 1 1 7.6394400000e-01 1.7159988065e+01 4.3981119041e+01 5.4505107417e+01
1211 1 1 7.6394400000e-01 3.3944132099e+01 1.1474987288e+01 3.6795633849e+01
1212 1 1 7.6394400000e-01 4.6901524402e+01 1.0527026009e+01 2.7410603212e-03
1213 1 1 7.6394400000e-01 6.7113376703e+00 5.8933521369e+00 5.8153310457e+01
1214 1 1 7.6394400000e-01 3.4375567516e+01 5.3819415272e+01 5.0118646256e+01
1215 1 1 7.6394400000e-01 5.7492829112e+01 1.4297990684e+00 5.1781646605e+01
1216 1 1 7.6394400000e-01 2.3576844343e+01 3.6188058569e+01 3.5239452192e+01
1217 1 1 7.6394400000e-01 2.9679872689e+01 6.3411619496e+01 6.0106000061e+01
1218 1 1 7.6394400000e-01 5.3501740962e+00 2.9148559372e+01 5.4549687939e+01
1219 1 1 7.6394400000e-01 2.1013024776e+01 1.1815539956e+01 5.4568992389e+01
1220 1 1 7.6394400000e-01 4.2460117671e+01 2.9091077515e+01 4.2748423989e+01
1221 1 1 7.6394400000e-01 7.4682424838e-01 2.7341710969e+01 3.9640323721e+01
1222 1 1 7.6394400000e-01 5.1592760286e+01 4.5442759850e+01 3.4992972014e+01
1223 1 1 7.6394400000e-01 1.2582083937e+01 1.8779953856e+01 5.4030380778e+01
1224 1 1 7.6394400000e-01 5.1497735562e+01 5.4416861869e+01 6.3047357882e+01
1225 1 1 7.6394400000e-01 1.5632995577e+01 1.0866255556e+01 3.6691312516e+01
1226 1 1 7.6394400000e-01 5.4620461532e+00 5.8378518772e+01 2.9844424583e+01
1227 1 1 7.6394400000e-01 2.7825881536e+01 6.1885538963e+01 2.7468897082e+01
1228 1 1 7.6394400000e-01 3.3629884775e+01 4.8520078345e+01 1.7916334788e+01
1229 1 1 7.6394400000e-01 4.2021391074e+01 2.7514326418e+01 4.0248425777e+01
1230 1 1 7.6394400000e-01 8.3854312225e-01 5.8542867355e+01 5.0890647053e+01
1231 1 1 7.6394400000e-01 1.2523673185e+01 9.1320204730e+00 1.3475576564e+00
1232 1 1 7.6394400000e-01 5.3362225831e+01 5.7445661831e+01 3.4514083498e+00
1233 1 1 7.6394400000e-01 4.6607480828e+01 2.7199022635e+01 5.5750367172e+01
1234 1 1 7.6394400000e-01 3.1616359025e+01 5.7441358724e+01 4.9605761676e+01
1235 1 1 7.6394400000e-01 1.2035989594e+01 5.8972031963e+01 5.6241583656e+01
1236 1 1 7.6394400000e-01 1.0202149258e+01 4.4357619056e+00 4.2070674143e+01
1237 1 1 7.6394400000e-01 2.3270464719e+01 5.3377249653e+01 6.1675266150e+01
1238 1 1 7.6394400000e-01 6.0516045051e+00 4.8851390565e+01 5.8856640753e+01
1239 1 1 7.6394400000e-01 6.0777064337e+01 4.5532828146e+01 2.7650740355e+01
1240 1 1 7.6394400000e-01 2.2928644625e+01 2.0483934721e+01 1.7136160483e+01
1241 1 1 7.6394400000e-01 5.0673824918e+01 4.4348462332e+01 2.8639195305e+01
1242 1 1 7.6394400000e-01 6.1291634441e+01 5.6894107151e+01 3.2745408982e+00
1243 1 1 7.6394400000e-01 1.4781850003e+00 1.9892608109e+01 5.4969947030e+00
1244 1 1 7.6394400000e-01 1.7828877361e+00 6.3050164465e+00 4.7445545519e+01
1245 1 1 7.6394400000e-01 1.6843093075e+01 1.6333058158e+01 3.9867382623e+01
1246 1 1 7.6394400000e-01 2.9492381276e+01 5.5996387017e+01 7.2178309108e-01
1247 1 1 7.6394400000e-01 2.2682922793e+01 1.9852820475e+00 6.0676576781e+01
1248 1 1 7.6394400000e-01 2.5793498731e+00 4.2410294761e+01 2.1073810037e+01
1249 1 1 7.6394400000e-01 7.9315359200e+00 6.4928635808e+00 6.3677747044e+01
1250 1 1 7.6394400000e-01 3.8166420209e+01 3.9302834731e+01 5.8108721583e+01
1251 1 1 7.6394400000e-01 3.7000430433e+01 5.6212400040e+01 1.0621479393e+01
1252 1 1 7.6394400000e-01 2.9498831095e+01 7.1537273602e+00 3.3886562460e+01
1253 1 1 7.6394400000e-01 6.3070180114e+01 4.7785161826e+01 4.7889747431e+01
1254 1 1 7.6394400000e-01 4.0909467756e+01 3.4960179005e+01 3.8027166380e+01
1255 1 1 7.6394400000e-01 6.0729023783e+00 5.6280042537e+01 3.5767293633e+01
1256 1 1 7.6394400000e-01 3.0757738152e+01 4.1561837939e+01 1.9381760860e+01
1257 1 1 7.6394400000e-01 2.0607870957e+01 1.5446715041e+01 3.9982136607e+00
1258 1 1 7.6394400000e-01 6.3338204370e+01 4.0352241848e+01 9.6490750502e+00
1259 1 1 7.6394400000e-01 1.3732280623e+01 3.6669620118e+01 3.1747035197e+01
1260 1 1 7.6394400000e-01 2.0124177349e+01 3.8498321445e+01 4.1604530792e+01
1261 1 1 7.6394400000e-01 2.5272467100e+01 1.3906345114e+01 5.6239830259e+01
1262 1 1 7.6394400000e-01 4.6575242947e+01 2.5615334242e+01 1.3689682608e+01
1263 1 1 7.6394400000e-01 5.5067819938e+01 5.2255649254e+01 2.7336143331e+01
1264 1 1 7.6394400000e-01 3.3977720672e+01 4.0276753290e+00 7.5658128379e+00
1265 1 1 7.6394400000e-01 9.1942406005e+00 1.2266595364e+01 1.9837217980e+01
1266 1 1 7.6394400000e-01 1.0101594337e+01 2.3793116778e+01 4.4609169147e+01
1267 1 1 7.6394400000e-01 1.9405618795e+01 6.1003177003e+01 3.6872183509e+00
1268 1 1 7.6394400000e-01 3.6309506003e+01 3.8423177588e+01 9.5727106989e+00
1269 1 1 7.6394400000e-01 3.3887282571e+01 5.9838033637e+01 6.3250783405e+01
1270 1 1 7.6394400000e-01 4.5861703712e+01 3.4360807734e+01 3.9351431305e+01
1271 1 1 7.6394400000e-01 5.2074300469e+01 5.7422548328e+01 6.0627762909e+01
1272 1 1 7.6394400000e-01 2.5229583335e+01 5.1081391623e+01 3.8602756218e+01
1273 1 1 7.6394400000e-01 9.2149558499e+00 5.8404652456e+01 2.5709229007e+00
1274 1 1 7.6394400000e-01 6.0412390240e+01 8.0510136779e+00 4.9420956369e+01
1275 1 1 7.6394400000e-01 2.6812330592e+01 5.8153806774e+01 3.6027544339e+01
1276 1 1 7.6394400000e-01 5.0023548319e+01 5.1118669019e+01 1.2332087707e+01
1277 1 1 7.6394400000e-01 1.8470151569e+01 1.5677621654e+00 1.3012340202e+01
1278 1 1 7.6394400000e-01 4.6468791711e+01 9.9891554349e+00 4.6678242808e+01
1279 1 1 7.6394400000e-01 4.5525565673e+01 1.4407998045e+01 5.9990055944e+00
1280 1 1 7.6394400000e-01 2.4176771767e-01 5.4519650891e+00 5.3797364065e+01
1281 1 1 7.6394400000e-01 2.3823181751e+00 6.4095534066e+00 1.0964511193e+01
1282 1 1 7.6394400000e-01 3.5573693492e+01 2.5286115232e+01 1.5519230073e+01
1283 1 1 7.6394400000e-01 3.5684494126e+01 6.3335268599e+01 3.5892124480e+01
1284 1 1 7.6394400000e-01 3.7401796782e+01 4.1682438799e+01 5.3392299080e+01
1285 1 1 7.6394400000e-01 8.7000616695e+00 6.1704891261e+01 7.0367460499e+00
1286 1 1 7.6394400000e-01 4.9825656088e+00 3.7701169726e+01 7.7248307402e+00
1287 1 1 7.6394400000e-01 4.5347062387e+01 4.7707300285e+01 3.7215962510e+01
1288 1 1 7.6394400000e-01 3.3812784701e+01 2.1438327548e+01 5.7917146733e+01
1289 1 1 7.6394400000e-01 5.3576083130e+01 4.1931437710e+01 5.5349673408e+01
1290 1 1 7.6394400000e-01 4.7093802734e+01 3.6427800017e+01 6.0318984193e+01
1291 1 1 7.6394400000e-01 5.1059466697e+01 5.9172023769e+01 7.9713879108e+00
1292 1 1 7.6394400000e-01 1.7516128825e+01 2.6445593728e+01 6.2230532419e+01
1293 1 1 7.6394400000e-01 3.5734759747e+01 4.4504344288e+01 5.4675293315e+00
1294 1 1 7.6394400000e-01 3.3788133246e+01 4.4865819135e+01 1.2151138491e+01
1295 1 1 7.6394400000e-01 2.6400408411e+01 1.3771372817e+01 7.2978888178e+00
1296 1 1 7.6394400000e-01 3.2731547486e+01 5.8157582624e+01 5.4943758884e+01
1297 1 1 7.6394400000e-01 3.5294332891e+01 5.1866631343e+01 3.4941671219e+01
1298 1 1 7.6394400000e-01 4.2318625781e+01 3.3239087128e+01 4.9770611506e+01
1299 1 1 7.6394400000e-01 4.5102023183e+01 5.4249286986e+01 4.0931760452e+01
1300 1 1 7.6394400000e-01 1.5518135871e+01 4.3256616236e+01 1.8457952903e+01
1301 1 1 7.6394400000e-01 2.9454392121e+01 1.4421131320e+01 1.3947177209e+01
1302 1 1 7.6394400000e-01 4.2141786139e+01 2.4318323588e+01 5.5040873885e+01
1303 1 1 7.6394400000e-01 3.3494565552e+01 6.1846516591e+01 3.2437250641e+01
1304 1 1 7.6394400000e-01 5.6964623166e+01 2.7136015851e+00 1.4929098945e+01
1305 1 1 7.6394400000e-01 6.0995745195e+01 5.2316717967e+01 2.4679950281e+01
1306 1 1 7.6394400000e-01 5.6040728421e+01 1.5407204607e+01 2.3577210733e+01
1307 1 1 7.6394400000e-01 3.6037336396e+01 3.9241768758e+01 4.5094251961e+01
1308 1 1 7.6394400000e-01 9.1096291212e+00 5.9368772656e+01 2.4068109300e+01
1309 1 1 7.6394400000e-01 4.2256965637e+01 6.1289486603e+01 1.3390170137e+01
1310 1 1 7.6394400000e-01 3.4684899289e+01 6.0601383906e+01 1.4045531552e+01
1311 1 1 7.6394400000e-01 4.5571573567e+01 2.3293889929e+01 3.5167638288e+01
1312 1 1 7.6394400000e-01 3.1806096530e+01 5.4070587272e+00 2.9926337195e+00
1313 1 1 7.6394400000e-01 7.5456250089e+00 9.6101838891e+00 2.8863157628e+01
1314 1 1 7.6394400000e-01 4.0304162968e+01 3.7607473587e+01 4.3040140348e+01
1315 1 1 7.6394400000e-01 5.9015308486e+01 2.7518504028e+01 1.7316930109e+01
1316 1 1 7.6394400000e-01 4.3714241144e+01 1.7635906558e+01 2.3298873026e+01
1317 1 1 7.6394400000e-01 1.1894790403e+01 3.6177281510e+01 2.1363466339e+01
1318 1 1 7.6394400000e-01 5.1023367997e+00 3.9101090242e+01 4.8739030251e+00
1319 1 1 7.6394400000e-01 1.3891701896e+01 6.2191964264e+01 3.3796431064e+01
1320 1 1 7.6394400000e-01 4.2641743458e+01 1.2336822359e+01 1.3123650007e+01
1321 1 1 7.6394400000e-01 2.6517389064e+01 4.4622381108e+01 6.2736194375e+01
1322 1 1 7.6394400000e-01 1.1653491613e+01 5.7904558396e+01 1.8650263383e+01
1323 1 1 7.6394400000e-01 5.3456776936e+01 6.0613579053e+01 2.1628743117e+01
1324 1 1 7.6394400000e-01 3.0188343284e+01 6.1086523279e+01 1.0453375983e+01
1325 1 1 7.6394400000e-01 2.4481074962e+01 6.1485617829e+01 7.8550547145e-01
1326 1 1 7.6394400000e-01 3.2739137538e+01 3.1880417338e+01 4.3013025187e+01
1327 1 1 7.6394400000e-01 6.2558047061e+01 3.9670177433e+01 5.5125240456e+01
1328 1 1 7.6394400000e-01 3.9971041021e+01 4.4980212769e+01 5.3121663061e+01
1329 1 1 7.6394400000e-01 3.0005688765e+01 3.4599603121e+00 2.9922374001e+01
1330 1 1 7.6394400000e-01 4.8809438971e+01 3.4073551765e+01 1.9006897341e+01
1331 1 1 7.6394400000e-01 8.7766852278e+00 1.8577761323e+01 5.9962193466e+01
1332 1 1 7.6394400000e-01 5.5620895936e+00 3.7113899597e+01 4.0971016157e+00
1333 1 1 7.6394400000e-01 4.7482425122e+01 5.3635526192e+01 2.0765371221e+01
1334 1 1 7.6394400000e-01 2.9591064223e+01 1.7799916337e+00 6.3189655619e+01
1335 1 1 7.6394400000e-01 1.0645234985e+01 6.3992075383e+01 8.5519482346e+00
1336 1 1 7.6394400000e-01 2.0417882909e+01 5.0374200708e+01 2.9485202586e+01
1337 1 1 7.6394400000e-01 3.8988506646e+01 3.3616930776e+01 5.8915671950e+01
1338 1 1 7.6394400000e-01 4.2571778463e+01 1.6747198228e+01 6.2931093127e+01
1339 1 1 7.6394400000e-01 4.7951926522e+01 3.9236752627e+01 1.7272345411e+01
1340 1 1 7.6394400000e-01 4.5427345354e+01 6.2240666225e+01 8.6151075345e+00
1341 1 1 7.6394400000e-01 4.6796557676e+01 1.3223898513e+01 6.9557106258e+00
1342 1 1 7.6394400000e-01 2.9758566017e+01 5.7401435544e+01 5.7502398892e+01
1343 1 1 7.6394400000e-01 3.2546280349e+01 3.9385698579e+01 2.1927033138e+01
1344 1 1 7.6394400000e-01 1.7716920581e+01 3.1840316906e+01 1.7089952994e+01
1345 1 1 7.6394400000e-01 4.0163761001e+01 1.1943754583e+00 9.0246018640e+00
1346 1 1 7.6394400000e-01 3.5432035925e+01 3.3667289295e+01 1.6233770194e+01
1347 1 1 7.6394400000e-01 2.4225894658e+01 4.6932829216e+00 3.7552621051e+01
1348 1 1 7.6394400000e-01 6.0103902155e+01 4.2086456063e+01 4.5256698243e+01
1349 1 1 7.6394400000e-01 2.8959195021e+01 3.1465088266e+01 3.6887506704e+01
1350 1 1 7.6394400000e-01 3.9643658030e+01 2.6641832751e+01 5.9036536067e+01
1351 1 1 7.6394400000e-01 5.0209116113e+01 1.1606251167e+01 6.0453581592e+01
1352 1 1 7.6394400000e-01 4.1999826042e+01 4.1824709365e+01 5.6105889937e+01
1353 1 1 7.6394400000e-01 2.0486549890e+01 4.2334729654e+01 1.1731387532e+01
1354 1 1 7.6394400000e-01 2.1684300177e+01 5.4017293516e+00 4.0349085809e+01
1355 1 1 7.6394400000e-01 4.2481819037e+01 3.7947250452e+01 7.5882197158e+00
1356 1 1 7.6394400000e-01 4.0796728213e+01 1.6848904419e+01 3.8701476464e+01
1357 1 1 7.6394400000e-01 3.0355895041e+01 2.3348880804e+00 5.1690455982e+01
1358 1 1 7.6394400000e-01 5.6825668271e+01 4.5710510154e+01 5.0172092935e+01
1359 1 1 7.6394400000e-01 3.8252957737e+01 6.3989873436e+01 5.3943718354e+01
1360 1 1 7.6394400000e-01 4.4636038628e+01 2.6035574909e+00 3.1525647895e+00
1361 1 1 7.6394400000e-01 3.7888570897e+01 3.5686425310e+01 2.8465236972e+01
1362 1 1 7.6394400000e-01 4.6235785695e+01 2.2762724759e+01 1.7427210524e+01
1363 1 1 7.6394400000e-01 2.0599207174e+01 3.9391830205e+01 3.0132909467e+01
1364 1 1 7.6394400000e-01 2.0729049204e+01 5.4179502306e+00 5.6975699680e+01
1365 1 1 7.6394400000e-01 1.8836888862e+01 3.9409745340e+01 4.9905120479e+00
1366 1 1 7.6394400000e-01 3.5299232284e+01 4.7575884218e+00 5.3500275817e+01
1367 1 1 7.6394400000e-01 1.5638215587e+00 3.9474105119e+01 1.2132374078e+01
1368 1 1 7.6394400000e-01 2.7967018855e+01 6.3439609902e+01 2.5003491966e+01
1369 1 1 7.6394400000e-01 4.6245276694e+01 5.4126473447e+01 5.8750616293e+01
1370 1 1 7.6394400000e-01 1.9095325031e-01 1.9151768162e+01 4.7607780119e+01
1371 1 1 7.6394400000e-01 1.1410822470e+01 1.0899500800e+01 6.9743199199e+00
1372 1 1 7.6394400000e-01 1.2993482555e+01 4.7937757366e+01 4.0741478514e+01
1373 1 1 7.6394400000e-01 4.8066964128e+01 8.1351718996e+00 5.9507161351e+01
1374 1 1 7.6394400000e-01 4.0623185314e+01 3.4571132601e+01 6.3624506078e+01
1375 1 1 7.6394400000e-01 3.9096297053e+01 2.4923371464e+01 3.0825917125e+01
1376 1 1 7.6394400000e-01 3.2050781635e+01 2.9559791725e+01 4.3736804551e+00
1377 1 1 7.6394400000e-01 5.4308470961e+01 4.4426777547e+01 4.3449656733e+00
1378 1 1 7.6394400000e-01 1.7878697437e+01 6.1357071761e+01 2.3621597494e+01
1379 1 1 7.6394400000e-01 6.0248249354e+01 2.2354536821e+01 1.7826637895e+01
1380 1 1 7.6394400000e-01 2.9685476074e+01 4.4054616504e+00 5.8827236595e+01
1381 1 1 7.6394400000e-01 6.0608534580e+01 1.1777964075e+01 5.1337269759e+01
1382 1 1 7.6394400000e-01 2.9138162085e+01 8.0313873808e+00 1.8729320127e+01
1383 1 1 7.6394400000e-01 3.4268465329e+01 3.2623278453e+01 2.6366725520e+01
1384 1 1 7.6394400000e-01 4.3534792662e+01 1.3230977299e+01 3.0701205990e+01
1385 1 1 7.6394400000e-01 5.5357550306e+01 5.7172764327e+01 4.1795969985e+00
1386 1 1 7.6394400000e-01 2.0211782347e+01 4.6491183469e+01 4.9253628974e+01
1387 1 1 7.6394400000e-01 5.0995473127e+01 5.4441861378e+01 5.5704001167e+01
1388 1 1 7.6394400000e-01 2.5479921433e+01 4.3470999376e+01 6.3202082462e+01
1389 1 1 7.6394400000e-01 1.5578402200e+00 7.9081274020e+00 3.4268298758e+01
1390 1 1 7.6394400000e-01 1.3429644258e+01 2.9651943193e+01 1.8473884436e+01
1391 1 1 7.6394400000e-01 5.9452072380e-01 2.4432064161e+00 6.5101110121e+00
1392 1 1 7.6394400000e-01 8.7012654765e+00 3.5361857280e+01 2.2137005225e+01
1393 1 1 7.6394400000e-01 5.9201688878e+01 2.1159177474e+01 3.8781421186e+01
1394 1 1 7.6394400000e-01 1.4007890826e+01 4.5327266114e+00 4.7995635916e+01
1395 1 1 7.6394400000e-01 5.7156436330e+01 5.5745815688e+01 5.3247341090e+01
1396 1 1 7.6394400000e-01 1.3429711101e+01 5.9956510978e+00 3.5277862865e+01
1397 1 1 7.6394400000e-01 2.0029754566e+01 4.5431796996e+01 5.6369785508e+01
1398 1 1 7.6394400000e-01 2.9763517939e+01 3.1368481885e+01 1.2228447619e+01
1399 1 1 7.6394400000e-01 5.7194784384e+01 2.2780789829e+01 1.7993038881e+01
1400 1 1 7.6394400000e-01 1.7105760010e+01 7.2003149908e+00 6.1266695149e+01
1401 1 1 7.6394400000e-01 5.7100982413e-02 2.6491450105e+00 5.7730882989e+01
1402 1 1 7.6394400000e-01 1.4342596432e+01 7.5484935763e+00 6.1505989903e+01
1403 1 1 7.6394400000e-01 3.2850952590e+01 2.6697419935e+01 6.2727733059e+01
1404 1 1 7.6394400000e-01 2.6668148850e+01 2.1089774779e+00 6.4152412020e+00
1405 1 1 7.6394400000e-01 3.6486398923e+01 1.1665648687e+01 1.6095273704e+01
1406 1 1 7.6394400000e-01 4.5727980689e+01 1.1842730242e+01 3.1813522290e+01
1407 1 1 7.6394400000e-01 8.0894009487e+00 1.5461717892e+01 1.0073827899e+01
1408 1 1 7.6394400000e-01 3.3222349903e+01 5.6472477930e+01 2.1166628236e+01
1409 1 1 7.6394400000e-01 8.8771457846e-01 1.7870089170e+01 4.8190534291e+01
1410 1 1 7.6394400000e-01 5.6094861778e+01 1.4581438257e+01 3.4019957671e+01
1411 1 1 7.6394400000e-01 3.6497136310e+01 1.0501688894e+01 6.0741363681e+01
1412 1 1 7.6394400000e-01 1.2313568998e+01 5.0421967409e+01 1.1171909526e+01
1413 1 1 7.6394400000e-01 3.4352760058e+01 5.7229311690e+01 3.6158151372e+00
1414 1 1 7.6394400000e-01 5.9507692600e+01 4.6816118176e+01 3.9900998485e+01
1415 1 1 7.6394400000e-01 2.9819694288e+01 2.1518982538e+01 3.4975632716e+01
1416 1 1 7.6394400000e-01 3.7102656320e+01 2.9790029154e+01 2.8598872406e+01
1417 1 1 7.6394400000e-01 5.3867731830e+01 6.2392883563e+01 5.8146394669e+01
1418 1 1 7.6394400000e-01 5.5891545591e+00 3.3470511316e+01 5.6288573320e+01
1419 1 1 7.6394400000e-01 1.6958058818e+01 4.8239892509e+01 3.0006584408e+01
1420 1 1 7.6394400000e-01 1.5666928342e+01 4.8993087138e+01 5.4310545850e+01
1421 1 1 7.6394400000e-01 2.4600767991e+01 4.6832391618e+01 3.3534926896e+01
1422 1 1 7.6394400000e-01 1.1399109375e+00 5.7858163715e+01 2.5489410311e+01
1423 1 1 7.6394400000e-01 2.0015084902e+01 1.4444860578e+01 9.1379614749e+00
1424 1 1 7.6394400000e-01 2.5052164169e+01 4.1800980945e+00 4.0729024604e+01
1425 1 1 7.6394400000e-01 3.0236680802e+01 4.7676492712e+01 4.3930001292e+01
1426 1 1 7.6394400000e-01 4.8004873328e+01 3.6902345503e+00 8.0740999317e+00
1427 1 1 7.6394400000e-01 1.5130294527e+01 4.0389117551e+01 2.4040488628e+01
1428 1 1 7.6394400000e-01 3.9337152501e+01 2.4399747872e+01 3.6289875607e+01
1429 1 1 7.6394400000e-01 4.5684676163e+01 3.5875947244e+01 2.8484966310e+01
1430 1 1 7.6394400000e-01 1.6065796974e+01 1.2545149694e+01 4.3895825901e+01
1431 1 1 7.6394400000e-01 4.4345394991e+01 5.5579271329e+01 2.3317305378e+01
1432 1 1 7.6394400000e-01 4.0106762947e+01 4.9812794881e+01 1.8134583373e+01
1433 1 1 7.6394400000e-01 2.6543712054e+00 3.6175357454e+01 2.0425232466e+00
1434 1 1 7.6394400000e-01 2.5428739671e+01 3.5361427230e+01 2.0398860511e+01
1435 1 1 7.6394400000e-01 6.0202817112e+01 1.5392349753e+01 5.3932020000e+01
1436 1 1 7.6394400000e-01 4.3398310498e+01 2.6355486453e+01 2.8469198723e+01
1437 1 1 7.6394400000e-01 1.6307254133e+01 2.2222328944e+01 3.8287468512e+01
1438 1 1 7.6394400000e-01 5.7935941729e+00 2.8713637429e+01 2.1726113108e+01
1439 1 1 7.6394400000e-01 3.0167285991e+00 1.7060338918e+01 4.5094389572e+01
1440 1 1 7.6394400000e-01 5.8942873056e+01 5.6626446191e+01 3.6111004401e+01
1441 1 1 7.6394400000e-01 4.4640484177e+01 2.9446178342e+01 2.5095426550e+01
1442 1 1 7.6394400000e-01 6.0921726358e+01 4.3367174111e+01 2.0189077226e+01
1443 1 1 7.6394400000e-01 6.0029089939e+01 2.7665732000e+01 2.8725051231e+01
1444 1 1 7.6394400000e-01 6.0915908421e+01 4.5922537574e+01 1.7330477736e+01
1445 1 1 7.6394400000e-01 2.1999244787e+00 4.3279228474e+01 2.3157295951e+01
1446 1 1 7.6394400000e-01 1.3255459434e+01 5.4748670476e+01 4.6699321833e+00
1447 1 1 7.6394400000e-01 4.2101604798e+01 1.3257475892e+00 5.4858533013e+01
1448 1 1 7.6394400000e-01 3.4508623451e+01 6.3663520743e+01 4.7373559231e+01
1449 1 1 7.6394400000e-01 1.4036032347e+01 1.9397219377e+01 1.2066382632e+00
1450 1 1 7.6394400000e-01 4.4831303014e+01 4.2652580890e+01 2.8139680574e+01
1451 1 1 7.6394400000e-01 6.2227875924e+01 1.5548475107e+01 1.5089592879e+01
1452 1 1 7.6394400000e-01 5.4574883589e+00 6.3593658133e+01 2.9489671171e+01
1453 1 1 7.6394400000e-01 9.4363388096e+00 4.9952853502e+01 3.8651679959e+01
1454 1 1 7.6394400000e-01 5.9630901905e+01 5.4777720871e+01 3.1915336304e+01
1455 1 1 7.6394400000e-01 4.5127049012e+01 2.7237066928e+01 4.5268551394e+01
1456 1 1 7.6394400000e-01 5.2866559640e+01 2.1030941245e+01 4.7635274973e+01
1457 1 1 7.6394400000e-01 1.4509735939e+01 5.9521956984e+01 2.5670156499e+01
1458 1 1 7.6394400000e-01 1.7659079226e+01 3.8491094675e+01 4.7974165253e+01
1459 1 1 7.6394400000e-01 4.0635152218e+01 5.6684638413e+01 6.0924847244e+01
1460 1 1 7.6394400000e-01 6.1095823121e+01 3.3153919448e+01 4.0739340330e+01
1461 1 1 7.6394400000e-01 5.1534722767e+01 4.3608857702e+01 7.0136669025e-01
1462 1 1 7.6394400000e-01 2.1922740027e+01 1.6311810369e+01 5.1978775299e+01
1463 1 1 7.6394400000e-01 5.3319953252e+01 1.4602709470e+01 5.1578919570e+00
1464 1 1 7.6394400000e-01 6.1991701690e+01 3.6990285364e+00 1.6515868706e+01
1465 1 1 7.6394400000e-01 3.7160516359e+01 8.3156027369e+00 4.5674647668e+01
1466 1 1 7.6394400000e-01 3.8697380966e+01 5.3910237890e+01 1.2766829545e+00
1467 1 1 7.6394400000e-01 3.8333197349e+01 2.8139438877e+00 1.8840791695e+01
1468 1 1 7.6394400000e-01 4.0144953071e+01 4.6528305191e+01 1.3696471567e+01
1469 1 1 7.6394400000e-01 6.3462346719e+01 3.1279343004e+00 1.3493248401e+01
1470 1 1 7.6394400000e-01 2.1129263761e+00 2.5052566874e+01 5.1212764623e+01
1471 1 1 7.6394400000e-01 2.6952140091e+01 4.0314320648e+01 5.1698389466e+01
1472 1 1 7.6394400000e-01 4.9739967413e+01 4.6670646714e+00 3.4865705919e+01
1473 1 1 7.6394400000e-01 2.6193006078e+01 5.0078284859e+01 6.3332159163e+01
1474 1 1 7.6394400000e-01 2.4243345978e+01 4.8439453188e+01 4.6160543071e+00
1475 1 1 7.6394400000e-01 5.0684849903e+01 1.0133768577e+01 3.5712150926e+01
1476 1 1 7.6394400000e-01 5.3519360976e+01 3.7014233746e+01 4.5150726240e+01
1477 1 1 7.6394400000e-01 1.2096665173e+01 5.4585432912e+00 3.1568978603e+01
1478 1 1 7.6394400000e-01 3.6016513057e+01 2.8592161327e+00 2.3875548271e+01
1479 1 1 7.6394400000e-01 5.5780612389e+01 2.5056065565e-01 3.9850395519e+01
1480 1 1 7.6394400000e-01 5.4918490378e+01 1.3652407885e+00 1.3665455992e+01
1481 1 1 7.6394400000e-01 2.9604659229e+00 2.5474401170e+01 2.2251164236e+01
1482 1 1 7.6394400000e-01 5.2483227327e+01 5.3373682158e+01 2.9450763441e+01
1483 1 1 7.6394400000e-01 2.4606282423e+01 5.7359999756e+01 5.4078723691e+01
1484 1 1 7.6394400000e-01 2.1776396554e+01 3.6610438187e+01 1.2539095770e+01
1485 1 1 7.6394400000e-01 4.3044856346e+01 4.1167894524e+01 1.2766275686e+01
1486 1 1 7.6394400000e-01 2.0524557819e+01 4.3512974500e+01 4.9312772606e+01
1487 1 1 7.6394400000e-01 3.9435099073e+01 4.8964205894e+01 5.3038795718e+01
1488 1 1 7.6394400000e-01 1.8652358058e+01 1.6420345428e+01 3.8172331174e+01
1489 1 1 7.6394400000e-01 1.7383834150e+01 3.8870604645e+01 1.4648709434e+00
1490 1 1 7.6394400000e-01 5.6689966577e+01 4.1357260997e+01 1.7452448340e+01
1491 1 1 7.6394400000e-01 6.0179186827e+01 2.7920043813e+01 1.3658383809e+01
1492 1 1 7.6394400000e-01 3.3301329495e+01 3.8516085175e+01 3.9122729609e+01
1493 1 1 7.6394400000e-01 2.3640292213e+01 3.6850419378e+01 5.8193280924e+01
1494 1 1 7.6394400000e-01 3.9374605930e+01 9.5638847029e-02 7.3120271161e-01
1495 1 1 7.6394400000e-01 3.6007655637e+01 3.9753980776e+00 6.2500786587e+01
1496 1 1 7.6394400000e-01 2.5502492710e+01 5.7862370074e+01 1.4146749615e+00
1497 1 1 7.6394400000e-01 2.5637447757e+01 4.0154598097e+01 7.0476299207e+00
1498 1 1 7.6394400000e-01 5.9827207525e+01 5.3953060773e+01 4.4563429178e+01
1499 1 1 7.6394400000e-01 1.3054889842e+01 2.2735288912e+01 5.1683447961e+01
1500 1 1 7.6394400000e-01 4.0238141130e+01 3.3795987293e+01 4.3436107825e+01
1501 1 1 7.6394400000e-01 2.4326294961e+01 4.0046833831e+01 3.0272000982e+00
1502 1 1 7.6394400000e-01 1.5646743248e+01 5.6574044584e+01 2.5341642449e+00
1503 1 1 7.6394400000e-01 6.2404638009e+01 2.8530709555e+01 1.1684938273e+01
1504 1 1 7.6394400000e-01 2.5893652174e+01 2.8968081854e+00 7.7227335665e+00
1505 1 1 7.6394400000e-01 2.3868491821e+00 3.7205072246e+01 5.9807663736e+01
1506 1 1 7.6394400000e-01 5.4714131356e+01 2.3326123989e+01 2.6473777876e+01
1507 1 1 7.6394400000e-01 5.5665871176e+01 4.1955802825e+01 3.4969628836e+01
1508 1 1 7.6394400000e-01 4.5379659100e+01 5.3043047364e+01 3.2772097679e+01
1509 1 1 7.6394400000e-01 1.0565084247e+01 2.5238846003e+01 1.4175391158e+00
1510 1 1 7.6394400000e-01 5.0501731334e+01 5.3080349062e+01 2.3271043547e+01
1511 1 1 7.6394400000e-01 4.2404523945e+01 1.4291019477e+01 4.1045138993e+01
1512 1 1 7.6394400000e-01 2.8277659952e+01 5.1159383284e+01 5.7106715090e+01
1513 1 1 7.6394400000e-01 2.4240538683e+01 5.5220674224e+01 1.1193436786e+01
1514 1 1 7.6394400000e-01 2.8147631259e+01 1.6498045580e+01 5.0058704779e+01
1515 1 1 7.6394400000e-01 7.9888310089e+00 1.3615939696e+01 3.6480442854e+01
1516 1 1 7.6394400000e-01 6.0838077189e+01 2.7057466103e-01 2.1489550036e+01
1517 1 1 7.6394400000e-01 4.8998877022e+01 8.2705223107e+00 5.3372204476e+01
1518 1 1 7.6394400000e-01 6.0877271117e+01 1.4909468347e+01 3.4923355374e+01
1519 1 1 7.6394400000e-01 1.4572290243e+01 5.3386868162e+01 8.7304328233e+00
1520 1 1 7.6394400000e-01 4.0120897809e+01 4.2796478348e+01 4.1858697860e+01
1521 1 1 7.6394400000e-01 4.8419924449e+01 4.6827970921e+01 2.3761564675e+01
1522 1 1 7.6394400000e-01 2.2597114250e+01 2.2121259739e+01 5.9804503196e+01
1523 1 1 7.6394400000e-01 3.8769395722e+01 4.8376453031e+01 9.2641189248e+00
1524 1 1 7.6394400000e-01 1.4543095870e+01 4.5836418497e+01 8.7964719226e+00
1525 1 1 7.6394400000e-01 3.6602216771e+01 4.4984094946e+01 3.1042291671e+01
1526 1 1 7.6394400000e-01 5.9163148429e+01 1.5044412220e+01 2.0219567450e+01
1527 1 1 7.6394400000e-01 8.1297850948e+00 3.8911503332e+01 3.2042294127e+01
1528 1 1 7.6394400000e-01 3.7670900202e+01 1.3182417849e+01 7.2242241683e+00
1529 1 1 7.6394400000e-01 4.1145142128e+01 3.0323984365e+01 3.5542814328e+00
1530 1 1 7.6394400000e-01 3.8408960712e+01 7.6443660282e+00 5.6800699312e+00
1531 1 1 7.6394400000e-01 2.7302313547e+01 4.3644066216e+00 6.2875136436e+00
1532 1 1 7.6394400000e-01 5.5536480421e+01 1.4984040579e+01 5.8448757235e+00
1533 1 1 7.6394400000e-01 2.8343170162e+01 1.4590271036e+01 3.9665157648e+01
1534 1 1 7.6394400000e-01 4.8043803182e+01 1.3337556220e+00 2.1483005593e+00
1535 1 1 7.6394400000e-01 1.3197725171e+01 2.7014536991e+01 4.2878515379e+01
1536 1 1 7.6394400000e-01 3.4649733612e+01 2.4444020866e+01 5.6625034366e+01
1537 1 1 7.6394400000e-01 3.0393214415e+01 6.1759971591e+01 2.2471865945e+01
1538 1 1 7.6394400000e-01 5.3231604880e+01 5.5855857461e+01 5.2406232794e+01
1539 1 1 7.6394400000e-01 3.8865437560e+01 2.3850761091e+01 5.2794399741e+01
1540 1 1 7.6394400000e-01 2.7603201814e+01 6.6723728475e-02 1.1256575694e+01
1541 1 1 7.6394400000e-01 5.7364176419e+01 1.5088895157e+01 4.3535517503e+01
1542 1 1 7.6394400000e-01 4.5917757372e+01 1.8940705491e+01 4.5034563143e+01
1543 1 1 7.6394400000e-01 4.4002010328e+01 7.9967987010e+00 6.0260496537e+01
1544 1 1 7.6394400000e-01 4.8412082813e+01 3.1421421004e+01 5.9525548491e+01
1545 1 1 7.6394400000e-01 5.6481894888e+01 6.1886072749e+01 1.5646686530e+01
1546 1 1 7.6394400000e-01 9.3280749687e+00 4.7498708723e+01 1.7416424285e+01
1547 1 1 7.6394400000e-01 3.5840894800e+01 4.7540925461e+01 2.5811897507e+01
1548 1 1 7.6394400000e-01 2.2649931139e+00 2.9282547615e+00 1.6081965338e+01
1549 1 1 7.6394400000e-01 4.7729338093e+01 1.7654527357e+01 1.2958840658e+01
1550 1 1 7.6394400000e-01 4.7164717655e+00 1.1843464199e+01 1.4921822805e+01
1551 1 1 7.6394400000e-01 2.3790753926e+01 4.6879612843e+01 1.6189147936e+01
1552 1 1 7.6394400000e-01 4.4521112309e+01 5.5430377150e+01 3.2914919796e+01
1553 1 1 7.6394400000e-01 5.7871971542e+01 6.0981271333e+00 3.1155479025e+01
1554 1 1 7.6394400000e-01 4.3019421301e+01 1.8625664710e+01 4.5321748239e+01
1555 1 1 7.6394400000e-01 2.9980949968e+01 3.0205506426e+01 1.0032593321e+01
1556 1 1 7.6394400000e-01 3.1082452958e+01 2.6921299268e+01 3.3436857304e+01
1557 1 1 7.6394400000e-01 4.1063850735e+01 1.5011914197e+01 6.2267481707e+01
1558 1 1 7.6394400000e-01 1.6759963157e+01 4.2590936663e+01 1.7097831168e+01
1559 1 1 7.6394400000e-01 5.5181247736e+01 2.9519791058e+01 1.3635948176e+01
1560 1 1 7.6394400000e-01 5.5251069942e+00 4.4873007603e+01 2.8798064470e+01
1561 1 1 7.6394400000e-01 5.8560858873e+01 3.0657709491e+01 1.7270526744e+01
1562 1 1 7.6394400000e-01 5.1309340961e+01 5.8734006137e+00 9.8294727477e-01
1563 1 1 7.6394400000e-01 2.3359311319e+01 3.3217502468e+01 5.3854084429e+01
1564 1 1 7.6394400000e-01 5.6249410792e+01 6.2627679915e+01 6.2815759108e+00
1565 1 1 7.6394400000e-01 3.2961123319e+01 6.1108607620e+01 2.6255424610e+01
1566 1 1 7.6394400000e-01 4.8679410092e+01 4.6664402771e+00 3.7772311299e+01
1567 1 1 7.6394400000e-01 4.8575331873e+00 2.7645243940e+01 5.8450001025e+01
1568 1 1 7.6394400000e-01 5.2109380603e+01 4.1991548607e+01 3.9289022224e+01
1569 1 1 7.6394400000e-01 7.6886844458e+00 7.0384636622e+00 2.6250936575e+01
1570 1 1 7.6394400000e-01 4.6043033530e+01 5.8493318407e+01 1.5954351064e+01
1571 1 1 7.6394400000e-01 3.9186142550e+01 6.3349157421e+01 6.0102380984e+01
1572 1 1 7.6394400000e-01 7.8671707483e+00 5.2864854396e+01 1.4791586362e+01
1573 1 1 7.6394400000e-01 6.1885656021e+01 2.8878727094e+00 3.3449751134e+01
1574 1 1 7.6394400000e-01 3.7746335791e+01 4.0713149893e+01 2.0901385104e+01
1575 1 1 7.6394400000e-01 3.0847900225e+01 4.2246336239e+01 9.7048345998e+00
1576 1 1 7.6394400000e-01 5.3220300152e+01 2.6484629369e+01 4.6831152655e+01
1577 1 1 7.6394400000e-01 1.6119156053e+01 4.2085251384e+01 2.6211520404e+01
1578 1 1 7.6394400000e-01 6.1860438218e+00 4.1574062625e+01 2.1303342854e+01
1579 1 1 7.6394400000e-01 5.2642483405e+01 5.1092084605e+01 5.3363056630e+00
1580 1 1 7.6394400000e-01 3.8858681619e+01 6.0792584584e+01 5.6177303787e+01
1581 1 1 7.6394400000e-01 3.3374699494e+01 5.0761752764e+01 2.4234990556e+01
1582 1 1 7.6394400000e-01 1.5014502428e+00 2.4887834442e+01 2.2611637602e+01
1583 1 1 7.6394400000e-01 5.1732088056e+01 1.8773853839e+01 5.0528708399e+01
1584 1 1 7.6394400000e-01 1.8149271417e+01 1.3973824072e+00 4.1420782215e+01
1585 1 1 7.6394400000e-01 3.9554323336e+01 4.4579577648e+01 4.0934721071e+01
1586 1 1 7.6394400000e-01 1.8258163512e+01 3.2475152849e+01 5.7354611169e+01
1587 1 1 7.6394400000e-01 5.7850113741e+01 6.0213829279e+01 4.8574965643e+01
1588 1 1 7.6394400000e-01 7.4139095522e+00 5.7560812442e+00 2.3227928945e+01
1589 1 1 7.6394400000e-01 6.3834072680e+01 5.7328700796e+01 1.8237547063e+01
1590 1 1 7.6394400000e-01 8.1377337881e+00 3.4273448369e+01 9.6768427241e+00
1591 1 1 7.6394400000e-01 1.7978128118e+01 1.4329325188e+01 4.6991109059e+01
1592 1 1 7.6394400000e-01 1.8984289098e+01 4.9162468772e+01 5.9937538520e+01
1593 1 1 7.6394400000e-01 4.4781773472e+01 3.1090906175e+01 5.0040939849e+01
1594 1 1 7.6394400000e-01 3.2974805277e+01 3.3206544066e+01 5.4443926795e+01
1595 1 1 7.6394400000e-01 4.7181329142e+00 4.3076380506e+01 6.5926894579e-01
1596 1 1 7.6394400000e-01 4.6662133122e+01 4.6906512939e+01 2.9543952219e+01
1597 1 1 7.6394400000e-01 6.7329532440e+00 2.0891738297e+01 1.5079797631e+01
1598 1 1 7.6394400000e-01 6.2872371098e+00 4.1650848006e+00 5.0617982067e+01
1599 1 1 7.6394400000e-01 5.9451837580e+01 5.5474095454e+01 4.7253298558e+01
1600 1 1 7.6394400000e-01 1.9138625782e+01 3.5296497997e+01 5.4774417695e+01
1601 1 1 7.6394400000e-01 5.3329525391e+01 2.2591254978e+01 5.7216431602e+01
1602 1 1 7.6394400000e-01 6.2599704935e+00 5.6332965268e+01 9.2162812282e+00
1603 1 1 7.6394400000e-01 5.1125716402e+01 8.0330745429e+00 5.7986098316e+01
1604 1 1 7.6394400000e-01 5.1693534662e+01 5.2363268642e+01 7.0138722587e+00
1605 1 1 7.6394400000e-01 3.5117233868e+01 3.6659657427e+01 3.1225103101e+01
1606 1 1 7.6394400000e-01 1.8498164219e+01 5.1749269668e+01 1.4762622504e+01
1607 1 1 7.6394400000e-01 6.0903730866e+01 5.6251532808e+01 5.7057750527e+01
1608 1 1 7.6394400000e-01 7.0801994998e+00 2.2003228780e+01 2.2949303975e+01
1609 1 1 7.6394400000e-01 3.6477168428e+01 2.2697988317e+01 3.3386333450e+01
1610 1 1 7.6394400000e-01 3.2288886799e+01 1.8139104955e+01 1.7366381126e+01
1611 1 1 7.6394400000e-01 4.6589316288e+01 2.5641653728e+01 2.5342775987e+00
1612 1 1 7.6394400000e-01 1.0948887305e+01 4.4517729232e+01 1.3727704629e+01
1613 1 1 7.6394400000e-01 6.4299227319e+00 3.2511626971e+01 8.1869886463e+00
1614 1 1 7.6394400000e-01 1.0643075316e+01 5.8267092355e+01 4.7620619231e+01
1615 1 1 7.6394400000e-01 4.7969019391e+01 2.8452715193e+01 2.0139429786e+01
1616 1 1 7.6394400000e-01 2.3169103087e+01 4.1311715628e+00 1.2542266341e+01
1617 1 1 7.6394400000e-01 2.3941867788e+01 1.7358717883e+01 5.4178849701e+01
1618 1 1 7.6394400000e-01 4.0571194471e+01 5.2895830806e+01 1.2956238389e+01
1619 1 1 7.6394400000e-01 4.9158134394e+01 1.2688960346e+01 4.9929981381e+01
1620 1 1 7.6394400000e-01 5.5257856823e+01 2.0724264976e+01 4.6468601099e+01
1621 1 1 7.6394400000e-01 1.4985806108e+01 5.1145150094e+01 3.0806996429e+01
1622 1 1 7.6394400000e-01 6.1596305777e+01 4.4059602558e+01 3.3503175580e+01
1623 1 1 7.6394400000e-01 2.3985775034e+01 1.3056148854e+01 3.1883854748e+01
1624 1 1 7.6394400000e-01 3.3991923252e+01 2.5492915066e+00 1.5932809835e+01
1625 1 1 7.6394400000e-01 1.2927257228e+00 5.6756807132e+01 2.0929287743e+01
1626 1 1 7.6394400000e-01 1.8152540565e+01 1.1545887076e+01 6.1514781444e+01
1627 1 1 7.6394400000e-01 5.7891768010e+01 4.1350502492e+01 3.4291195830e+01
1628 1 1 7.6394400000e-01 3.6350350730e+01 2.0714152722e+01 3.4844640018e+01
1629 1 1 7.6394400000e-01 5.8791153990e+01 5.0794170802e+01 4.9042851627e+01
1630 1 1 7.6394400000e-01 3.5787401411e+01 4.2168096637e+01 5.0096069618e+01
1631 1 1 7.6394400000e-01 3.2785638202e+01 6.2806066653e+01 2.2428089385e+01
1632 1 1 7.6394400000e-01 5.3654144931e+01 4.8233549741e+01 5.3243142258e+01
1633 1 1 7.6394400000e-01 3.6727558846e+01 1.4988754427e+01 1.8146244715e+01
1634 1 1 7.6394400000e-01 1.0408571017e+01 3.3358460917e+01 2.8849464381e+01
1635 1 1 7.6394400000e-01 1.6373044169e+01 4.9638766541e+01 5.7177541566e+01
1636 1 1 7.6394400000e-01 5.2627589955e+01 7.4340020750e+00 2.4828388614e+01
1637 1 1 7.6394400000e-01 2.5391761988e+01 3.8513273054e+01 5.1045402995e+01
1638 1 1 7.6394400000e-01 5.9852771434e+01 9.6589285436e+00 2.1912217593e+01
1639 1 1 7.6394400000e-01 6.3935930026e+01 2.6233371293e+00 1.5471106349e+01
1640 1 1 7.6394400000e-01 3.0911661497e+01 2.3632811049e+01 4.8476807254e+01
1641 1 1 7.6394400000e-01 2.4580235008e+01 2.0331953154e+01 5.5051737233e+01
1642 1 1 7.6394400000e-01 7.0038055995e+00 2.8667441516e+01 5.6851975127e+01
1643 1 1 7.6394400000e-01 3.7662392223e+01 5.4059365901e+00 5.1364267852e+01
1644 1 1 7.6394400000e-01 6.3956880810e+01 2.4850765036e+01 2.9022430815e+00
1645 1 1 7.6394400000e-01 3.0086111278e+01 5.8627414893e+01 6.1974675937e+01
1646 1 1 7.6394400000e-01 6.3421155438e+01 1.9432505110e+01 4.2390324927e+01
1647 1 1 7.6394400000e-01 2.1577378890e+01 2.4503340253e+01 2.7287574132e-01
1648 1 1 7.6394400000e-01 4.3052649066e+01 2.7314718506e+01 5.3958349588e+01
1649 1 1 7.6394400000e-01 1.3669040529e+01 2.7657703620e+01 6.0182240251e+01
1650 1 1 7.6394400000e-01 3.0450067455e+01 3.0517198330e+01 4.9475676288e+01
1651 1 1 7.6394400000e-01 2.0495277591e+01 3.3242356095e+00 2.8086626796e+01
1652 1 1 7.6394400000e-01 4.6305804877e+01 4.3222717632e+01 6.5896877630e+00
1653 1 1 7.6394400000e-01 1.8650066109e+01 2.1005530644e+00 8.6743036878e+00
1654 1 1 7.6394400000e-01 5.1020727733e+01 3.9682821251e+01 3.1848590671e+01
1655 1 1 7.6394400000e-01 6.2367055850e+01 1.8120795952e+00 5.8159147009e+01
1656 1 1 7.6394400000e-01 4.9942848412e+01 3.1434942394e+01 5.4533306972e+01
1657 1 1 7.6394400000e-01 3.8396095631e+01 2.1437277634e+01 1.3166699764e+01
1658 1 1 7.6394400000e-01 5.5964984448e+01 3.6959132257e+01 3.0769225671e+01
1659 1 1 7.6394400000e-01 1.2389284339e+01 1.5725322939e+01 4.7552686665e+01
1660 1 1 7.6394400000e-01 4.5337540730e+01 4.3900807857e+01 5.9628986261e+01
1661 1 1 7.6394400000e-01 3.4194805381e+01 2.0243944170e+01 1.6951847296e+01
1662 1 1 7.6394400000e-01 5.3576869097e+01 5.3733432119e+01 5.0435322350e+01
1663 1 1 7.6394400000e-01 3.1178194864e+01 9.6993646089e-01 4.1887699845e+01
1664 1 1 7.6394400000e-01 2.7476183482e+01 6.4353623502e+00 3.8320475442e+01
1665 1 1 7.6394400000e-01 1.1626711458e+01 4.7639697364e+01 3.0001247895e+01
1666 1 1 7.6394400000e-01 5.2756269946e+01 4.0000973635e+00 1.6857419870e+01
1667 1 1 7.6394400000e-01 1.9422989532e+01 4.1361228353e+01 4.0175886647e+01
1668 1 1 7.6394400000e-01 4.0507966044e+01 2.8558533991e+01 3.2828743082e+01
1669 1 1 7.6394400000e-01 4.3571329803e+01 5.6006659241e+01 5.3503661693e+01
1670 1 1 7.6394400000e-01 3.0014839808e+01 2.2759564812e+01 3.2984361692e+01
1671 1 1 7.6394400000e-01 4.9592624647e+01 4.6794372277e+01 1.3319593183e+01
1672 1 1 7.6394400000e-01 4.1540359346e+01 2.2035354179e+01 8.4692011231e+00
1673 1 1 7.6394400000e-01 3.5335185284e+01 4.4033262874e+00 2.7972142384e+01
1674 1 1 7.6394400000e-01 5.6870745071e+01 1.8481337495e+01 3.4779417199e+01
1675 1 1 7.6394400000e-01 2.1274966962e+01 2.4484067810e+01 4.5565604585e+01
1676 1 1 7.6394400000e-01 1.7116990491e+01 1.4365500204e+01 3.7258850148e+01
1677 1 1 7.6394400000e-01 2.1838856057e+01 2.3511468441e+01 1.5124439999e+01
1678 1 1 7.6394400000e-01 5.8173392197e+01 1.3848320362e+01 1.6129693727e+01
1679 1 1 7.6394400000e-01 5.7866160728e+01 3.2477542973e+01 4.8414274783e+01
1680 1 1 7.6394400000e-01 1.9598622431e+01 1.1859419080e+01 5.1152689566e+01
1681 1 1 7.6394400000e-01 5.2596390576e+01 6.2723449090e+01 2.6248838093e+01
1682 1 1 7.6394400000e-01 2.6071963490e+01 5.4974899976e+01 2.7538126417e+01
1683 1 1 7.6394400000e-01 3.1909991128e+01 3.2061778740e+01 1.1099133076e+01
1684 1 1 7.6394400000e-01 2.4532315256e+01 3.6827020938e+01 1.1620129554e+01
1685 1 1 7.6394400000e-01 5.0510724160e+01 5.9072255895e+01 4.1899969837e+01
1686 1 1 7.6394400000e-01 5.4642717500e+01 4.8647180014e+01 4.0252448768e+01
1687 1 1 7.6394400000e-01 2.9792558341e+01 5.9441351107e+01 4.5957290079e+01
1688 1 1 7.6394400000e-01 4.4127634342e+01 3.5172449368e+01 1.5936773600e-01
1689 1 1 7.6394400000e-01 4.6728193845e+01 2.0975026926e+01 3.4394621690e+01
1690 1 1 7.6394400000e-01 7.4035703426e+00 7.7892233418e+00 6.2136639335e+01
1691 1 1 7.6394400000e-01 1.9724493696e+01 1.5256063749e+01 2.1841919786e+01
1692 1 1 7.6394400000e-01 2.8446812259e+00 2.6014175196e+01 2.4168269222e+01
1693 1 1 7.6394400000e-01 4.6135102341e+01 5.2524927618e+01 3.9235172552e+01
1694 1 1 7.6394400000e-01 6.1751908385e+01 5.0200151829e+01 9.1913585028e+00
1695 1 1 7.6394400000e-01 5.0011450040e+01 2.8681404838e+01 3.0064428736e+01
1696 1 1 7.6394400000e-01 5.7206617726e+01 1.4125759622e+01 3.1171418474e+01
1697 1 1 7.6394400000e-01 1.8566388866e+01 4.7139724242e+01 1.4401274825e+01
1698 1 1 7.6394400000e-01 2.0934582421e+01 1.5257634126e+01 7.2196690876e+00
1699 1 1 7.6394400000e-01 2.1298630609e+01 2.8786192984e+01 1.9113779172e+00
1700 1 1 7.6394400000e-01 3.6469191293e+01 4.6349968621e+01 2.5260450232e+01
1701 1 1 7.6394400000e-01 4.4263079798e+01 4.1291230446e+01 5.7266299009e+01
1702 1 1 7.6394400000e-01 3.7234043977e+01 4.3880786508e+01 3.5804579173e+01
1703 1 1 7.6394400000e-01 4.9444470383e+01 7.4128044761e+00 2.2934111271e+01
1704 1 1 7.6394400000e-01 3.7024086273e+01 2.6617247773e+01 2.7243445066e+01
1705 1 1 7.6394400000e-01 3.8254113192e+01 4.1189621472e+01 5.1085885208e+01
1706 1 1 7.6394400000e-01 2.7741805899e+01 2.1651809866e+00 2.0282346342e+00
1707 1 1 7.6394400000e-01 1.1176532688e+01 8.8274798038e+00 5.8572547433e+00
1708 1 1 7.6394400000e-01 4.5215204334e+01 5.1498868954e+01 2.5574386481e+01
1709 1 1 7.6394400000e-01 1.3293961503e+01 3.4577950329e+01 2.6247458959e+01
1710 1 1 7.6394400000e-01 5.7384951710e+01 2.9731561918e+01 4.5728342643e+01
1711 1 1 7.6394400000e-01 2.6706766242e+01 1.5896090087e+01 2.9232940605e+01
1712 1 1 7.6394400000e-01 6.3706450102e+01 5.9759084301e+01 1.0901444892e+00
1713 1 1 7.6394400000e-01 3.6563334443e+00 2.6504887531e+01 2.1809193933e+01
1714 1 1 7.6394400000e-01 3.1810204732e+01 4.2492232021e+01 4.1452042604e+01
1715 1 1 7.6394400000e-01 1.3180602414e+01 4.9971281864e+01 2.2029379585e+00
1716 1 1 7.6394400000e-01 4.8911853000e+01 2.6919360773e+01 4.1593579156e+01
1717 1 1 7.6394400000e-01 7.8658084302e+00 1.0302624454e+01 4.6961694985e+01
1718 1 1 7.6394400000e-01 6.1161346755e+00 3.6454266058e+01 6.4227008727e+00
1719 1 1 7.6394400000e-01 5.2207150554e+01 1.1424595985e+01 1.7411377769e+01
1720 1 1 7.6394400000e-01 1.9561675542e+01 8.0117909838e+00 1.9697442159e+01
1721 1 1 7.6394400000e-01 2.9241030640e+01 6.4937571378e+00 1.0149815189e+01
1722 1 1 7.6394400000e-01 4.4950542703e+00 3.4121053294e+01 5.8745026829e+01
1723 1 1 7.6394400000e-01 6.2469499689e+00 2.9079503525e+01 3.2227875544e+01
1724 1 1 7.6394400000e-01 2.6647229266e+01 2.3526258179e+01 3.6623910651e+01
1725 1 1 7.6394400000e-01 6.3811860515e+01 3.0310572906e+01 1.3932514197e+01
1726 1 1 7.6394400000e-01 3.6484687226e+01 4.1197879544e+00 4.9870987703e+01
1727 1 1 7.6394400000e-01 4.7248100146e+00 1.0424057115e-01 4.8623998594e+01
1728 1 1 7.6394400000e-01 4.9016176088e+01 5.6142663266e+01 2.4029079054e+01
1729 1 1 7.6394400000e-01 5.7035298267e+01 2.2468394410e+01 2.3716592794e+01
1730 1 1 7.6394400000e-01 5.3710071877e+01 3.6717435812e+01 4.8808680317e+01
1731 1 1 7.6394400000e-01 1.5284959226e+01 9.5424122860e+00 1.9856861789e+01
1732 1 1 7.6394400000e-01 2.4612186878e+01 5.2755438608e+01 9.0584635772e-01
1733 1 1 7.6394400000e-01 1.1377727366e+01 3.6785803938e+00 4.2650001443e+01
1734 1 1 7.6394400000e-01 5.6639950789e+01 7.5171383291e-02 5.2725501494e+01
1735 1 1 7.6394400000e-01 1.6414564758e+01 1.5737110689e+01 1.0804372184e+01
1736 1 1 7.6394400000e-01 5.7081392273e+01 2.1728756449e+00 6.0380594161e+00
1737 1 1 7.6394400000e-01 3.4610601685e+01 5.0592710967e+01 7.0687901604e-02
1738 1 1 7.6394400000e-01 4.4727327553e+01 2.7508119217e+01 6.1789325031e+00
1739 1 1 7.6394400000e-01 1.2845783572e+01 4.1018993303e+01 3.9455806637e+01
1740 1 1 7.6394400000e-01 3.3007628971e+01 3.9757267025e+01 3.8151387348e+01
1741 1 1 7.6394400000e-01 2.6893420359e+01 5.5753793264e+01 5.1130946583e+01
1742 1 1 7.6394400000e-01 2.2084210508e+00 2.4391662777e+01 2.8527994801e+01
1743 1 1 7.6394400000e-01 1.0248189842e+01 3.0572245971e+00 2.9170265622e+01
1744 1 1 7.6394400000e-01 3.8960195564e+00 5.2135249280e+00 1.3192281440e+01
1745 1 1 7.6394400000e-01 3.3122147330e+00 2.2828661140e+01 6.4046009805e+00
1746 1 1 7.6394400000e-01 7.5157652922e+00 2.1792542049e+01 4.0961349287e+01
1747 1 1 7.6394400000e-01 5.4937486854e+01 2.1147642013e+01 2.3917501907e+01
1748 1 1 7.6394400000e-01 3.8298592609e+00 2.8669732952e+00 1.5013073788e+01
1749 1 1 7.6394400000e-01 4.8916665926e+01 3.3969506156e+01 5.8562093325e+01
1750 1 1 7.6394400000e-01 3.8700487018e+01 5.6114858083e+01 3.7292256843e+01
1751 1 1 7.6394400000e-01 3.2875380427e+01 5.5058033872e+01 5.5613938736e+01
1752 1 1 7.6394400000e-01 4.3475894092e+01 3.1466585903e+01 1.2308338858e+00
1753 1 1 7.6394400000e-01 1.1864274477e+01 4.5840687118e+01 4.0809021821e+01
1754 1 1 7.6394400000e-01 5.2065437545e+01 4.2292724965e+00 5.9539342954e+01
1755 1 1 7.6394400000e-01 5.3619377107e+00 2.0922196766e+00 5.9193985524e+01
1756 1 1 7.6394400000e-01 1.5750779475e+01 4.0730007093e+01 4.0753080976e+01
1757 1 1 7.6394400000e-01 6.3392690134e+01 4.2467715203e+01 5.5277725828e+01
1758 1 1 7.6394400000e-01 3.7519346533e+01 2.3531566631e+01 4.2771087579e+01
1759 1 1 7.6394400000e-01 9.3043599936e+00 3.3306040650e+01 4.9122875681e+01
1760 1 1 7.6394400000e-01 5.6125349963e+01 1.9079387619e+01 5.1349402687e+01
1761 1 1 7.6394400000e-01 5.5665364804e+01 3.6995311135e+01 5.8060456334e+01
1762 1 1 7.6394400000e-01 2.2583042893e+01 4.8710244399e+01 2.0840840735e+01
1763 1 1 7.6394400000e-01 2.7167526275e+01 5.1472004092e+01 3.1714304119e+01
1764 1 1 7.6394400000e-01 2.2879308563e+01 5.2529623378e+01 2.1588959143e+01
1765 1 1 7.6394400000e-01 6.3967838774e+01 6.2397907481e+01 3.8579605709e+01
1766 1 1 7.6394400000e-01 1.7084585959e+01 4.4447317333e+01 3.1921603480e+01
1767 1 1 7.6394400000e-01 4.3333523652e+01 5.7372263188e+01 1.9452574176e+01
1768 1 1 7.6394400000e-01 3.2620170529e+01 5.0433419309e+01 8.9314506246e+00
1769 1 1 7.6394400000e-01 4.4501909791e+01 5.7595679036e+01 4.9710810686e+01
1770 1 1 7.6394400000e-01 3.5688414301e+01 1.1220749367e+01 4.5750172894e+01
1771 1 1 7.6394400000e-01 2.3345513953e+01 2.1776162283e+01 3.4887845112e+00
1772 1 1 7.6394400000e-01 4.1311605944e+01 2.1073113352e+00 1.3922094972e+01
1773 1 1 7.6394400000e-01 3.0121517976e+01 5.3273034583e+01 1.3334166015e+01
1774 1 1 7.6394400000e-01 3.5572809561e+01 7.0568616320e+00 6.1634606890e+01
1775 1 1 7.6394400000e-01 4.9104269204e+01 9.5022911754e+00 5.2611410607e+00
1776 1 1 7.6394400000e-01 5.2143784124e+01 2.8658155671e+01 2.5497764782e+00
1777 1 1 7.6394400000e-01 1.2135553758e+01 1.3551215052e+01 6.0104160207e+01
1778 1 1 7.6394400000e-01 5.3441350819e+00 8.4646000177e+00 9.3654087103e+00
1779 1 1 7.6394400000e-01 7.4703155906e+00 5.6245496890e+01 2.3913497959e+01
1780 1 1 7.6394400000e-01 2.2090348653e+01 7.8536972110e+00 3.1252937341e+01
1781 1 1 7.6394400000e-01 4.2017879585e+01 2.6875211024e+01 3.4066185291e+01
1782 1 1 7.6394400000e-01 4.4868515388e+01 1.4494972855e+01 3.3390801289e+01
1783 1 1 7.6394400000e-01 5.9217645373e+01 1.0541188956e+01 5.0438614208e+01
1784 1 1 7.6394400000e-01 4.7808603795e+01 2.4023844699e+01 2.7886000918e+01
1785 1 1 7.6394400000e-01 4.5190301461e+00 4.5667424700e+01 1.2248790769e+01
1786 1 1 7.6394400000e-01 5.0413712433e+01 1.0993742075e+01 1.3535076512e+01
1787 1 1 7.6394400000e-01 5.5336757286e+01 4.5112005765e+01 5.3374699484e+01
1788 1 1 7.6394400000e-01 1.9216674989e+01 3.8148006519e+01 4.3419484787e+01
1789 1 1 7.6394400000e-01 6.0692907199e+01 4.0409302624e+00 6.3688236283e+01
1790 1 1 7.6394400000e-01 4.5746277347e+01 6.1756831748e+01 2.2139140261e+01
1791 1 1 7.6394400000e-01 1.9816353648e+01 3.0681912151e+01 1.7455633820e+01
1792 1 1 7.6394400000e-01 5.9653094826e+01 4.3574526959e+01 2.2381901726e+01
1793 1 1 7.6394400000e-01 1.0244491629e+01 3.0427762962e+01 1.5158287020e+01
1794 1 1 7.6394400000e-01 3.6219424548e+00 1.1240580059e+01 5.4273244583e+01
1795 1 1 7.6394400000e-01 2.8114019374e+01 1.3622386832e+01 5.3970429904e+01
1796 1 1 7.6394400000e-01 1.6168292602e+01 9.9867386877e-01 4.3540862419e+00
1797 1 1 7.6394400000e-01 2.8586362648e+01 3.2221584402e+01 4.7777780397e+01
1798 1 1 7.6394400000e-01 4.6636264264e+01 8.8846663412e+00 2.0207607375e+01
1799 1 1 7.6394400000e-01 8.4260694035e-01 7.6344435521e-01 3.1587545565e+01
1800 1 1 7.6394400000e-01 4.3244661188e+00 5.2290353729e+00 4.7456411838e+01
1801 1 1 7.6394400000e-01 7.7378979048e+00 3.7254161153e+01 2.4094195694e+01
1802 1 1 7.6394400000e-01 4.3466152507e+01 3.8492662751e+01 1.1090567340e+01
1803 1 1 7.6394400000e-01 1.2894296561e+01 4.5515574020e+01 4.7554817386e+01
1804 1 1 7.6394400000e-01 1.3510890350e+01 2.5546181222e+01 5.6806708325e+01
1805 1 1 7.6394400000e-01 2.4073509664e+01 2.2525283015e+01 5.0566429561e+01
1806 1 1 7.6394400000e-01 3.1315527216e+01 6.2175576981e+00 5.0206723353e+01
1807 1 1 7.6394400000e-01 3.7661462762e+00 3.7606197783e+01 5.4601795001e+01
1808 1 1 7.6394400000e-01 5.9216240403e+00 5.5813573783e+01 6.2293313435e+01
1809 1 1 7.6394400000e-01 6.0144374241e+01 5.7086133909e+01 2.1274263701e+01
1810 1 1 7.6394400000e-01 3.9748406348e+01 2.1057625360e+01 3.4943916481e+01
1811 1 1 7.6394400000e-01 2.7280666539e+01 6.3140633340e+01 1.4036706551e+01
1812 1 1 7.6394400000e-01 4.6156147155e+00 5.9000298638e+01 7.8367862773e+00
1813 1 1 7.6394400000e-01 5.0178640822e+01 4.6222098849e+01 1.2665275780e+00
1814 1 1 7.6394400000e-01 3.7186156368e+01 1.6906017477e+01 1.9293243295e+01
1815 1 1 7.6394400000e-01 4.9143272853e+01 2.9152459713e+00 5.3523245431e+01
1816 1 1 7.6394400000e-01 2.7402142523e+01 3.3096513307e+01 2.5904368928e+01
1817 1 1 7.6394400000e-01 5.2716067576e+01 1.2717154243e+01 2.3442236082e+01
1818 1 1 7.6394400000e-01 2.2806667379e+01 4.0043933557e+01 2.4346548590e-01
1819 1 1 7.6394400000e-01 4.6367136606e+01 1.9309248498e+01 2.3988968548e+01
1820 1 1 7.6394400000e-01 4.4871355189e+01 3.2584912999e+00 4.3903178378e+01
1821 1 1 7.6394400000e-01 3.5068825636e+01 5.8845556426e+01 2.9004343012e+01
1822 1 1 7.6394400000e-01 5.4781676422e+01 3.5405052372e+01 7.8091445884e+00
1823 1 1 7.6394400000e-01 1.7492897847e+01 4.5164189683e+01 6.0547664088e+01
1824 1 1 7.6394400000e-01 3.3326850461e+01 2.7071842400e+01 1.1591781038e+01
1825 1 1 7.6394400000e-01 2.3175248916e+01 2.6946449368e+01 3.9874475327e+01
1826 1 1 7.6394400000e-01 4.8509392659e+01 2.4735209662e+01 3.9752572792e+00
1827 1 1 7.6394400000e-01 5.1846099842e+01 1.2617562426e+01 6.2384382840e+01
1828 1 1 7.6394400000e-01 1.9630282377e+01 6.2992310840e+01 1.7076370901e+01
1829 1 1 7.6394400000e-01 6.2814720848e+01 5.6305427943e+01 5.7207771246e+01
1830 1 1 7.6394400000e-01 3.1080795280e+01 5.6810846861e+01 5.3403031331e+00
1831 1 1 7.6394400000e-01 4.3359336527e+01 1.5854499525e+00 4.8784760037e+01
1832 1 1 7.6394400000e-01 6.2965282863e+01 4.5237900570e+01 5.3026378741e+01
1833 1 1 7.6394400000e-01 1.2950216875e+01 5.1942670851e+00 4.9741753821e+00
1834 1 1 7.6394400000e-01 3.8651166379e+01 3.5532629934e+00 4.7887066157e+00
1835 1 1 7.6394400000e-01 2.8536906131e+01 6.1159374795e+01 3.7127921996e+01
1836 1 1 7.6394400000e-01 7.7322393858e+00 1.3999037526e+01 3.8448155932e+01
1837 1 1 7.6394400000e-01 6.0151988260e+00 3.6938786416e+01 3.6452412050e+01
1838 1 1 7.6394400000e-01 6.0738594840e+01 2.3599697694e+01 5.5523955981e+01
1839 1 1 7.6394400000e-01 8.2796476456e+00 2.3088032697e+01 3.2567572845e+01
1840 1 1 7.6394400000e-01 4.0194525703e+01 3.6912047303e+01 2.8026706668e+01
1841 1 1 7.6394400000e-01 3.0848025765e+01 2.8466368522e+01 1.3920787268e+01
1842 1 1 7.6394400000e-01 5.0449477629e+01 3.0111294923e+01 1.6143447679e+01
1843 1 1 7.6394400000e-01 5.9146374844e+01 5.2568978062e+01 2.6310990634e+01
1844 1 1 7.6394400000e-01 3.4948918241e+01 2.9426107171e+01 2.1673609763e+01
1845 1 1 7.6394400000e-01 2.4723253419e+01 5.3081225162e+01 4.7860776371e+01
1846 1 1 7.6394400000e-01 7.0176962115e+00 4.0604996329e+01 4.8563752975e+01
1847 1 1 7.6394400000e-01 4.7930774884e+01 4.4587552462e+01 2.1510599785e+01
1848 1 1 7.6394400000e-01 3.1255699819e+01 1.0573607791e+01 1.1023455433e+01
1849 1 1 7.6394400000e-01 6.3874116370e+01 3.6020806665e+01 2.1554197809e+01
1850 1 1 7.6394400000e-01 2.4390568188e+01 2.2251765835e+01 4.9511192850e+00
1851 1 1 7.6394400000e-01 2.2534853449e+01 6.0521683419e+01 8.4395732783e+00
1852 1 1 7.6394400000e-01 4.4084831935e+01 3.7958616451e+01 3.5551272655e+01
1853 1 1 7.6394400000e-01 4.6506861293e+01 5.6770613404e+01 2.3731583846e+01
1854 1 1 7.6394400000e-01 2.1488566959e+01 2.0661954218e+01 3.6190142917e+00
1855 1 1 7.6394400000e-01 1.0257517426e+01 2.5044826027e+01 4.7379554125e+01
1856 1 1 7.6394400000e-01 3.0933638883e+01 4.0682794086e+01 6.0783368055e+01
1857 1 1 7.6394400000e-01 4.2644176523e+01 2.3415167871e+01 2.1381077123e+01
1858 1 1 7.6394400000e-01 1.0240399755e+01 3.3551156295e+01 2.4591995040e+01
1859 1 1 7.6394400000e-01 5.9266629100e+01 2.2971341065e+01 1.2754487923e+01
1860 1 1 7.6394400000e-01 5.0788155938e+01 2.9738465585e+01 2.1134161323e+01
1861 1 1 7.6394400000e-01 9.3068683184e+00 5.3379131935e+01 3.1708388126e+01
1862 1 1 7.6394400000e-01 4.4289925923e+01 1.3022871324e+01 3.8361273780e+01
1863 1 1 7.6394400000e-01 1.7167059376e+01 3.3450841055e+01 3.7726333070e+01
1864 1 1 7.6394400000e-01 3.2596334804e+01 2.6806850334e+00 1.7544693794e+01
1865 1 1 7.6394400000e-01 8.4233958247e+00 4.7158724956e+01 2.4468920386e+01
1866 1 1 7.6394400000e-01 6.3329304703e+01 5.9237195523e+01 4.4126040534e+01
1867 1 1 7.6394400000e-01 2.8287593830e+00 1.9545973419e+01 1.1896312184e+01
1868 1 1 7.6394400000e-01 3.9494185136e+00 2.8245613361e+01 4.8431849666e+01
1869 1 1 7.6394400000e-01 2.7619311967e+01 4.6505169310e+01 5.4120612967e+01
1870 1 1 7.6394400000e-01 3.8443843988e+01 4.8895480721e+01 4.8986370887e+00
1871 1 1 7.6394400000e-01 2.2259149908e+01 3.9621559422e+00 1.3761347220e+01
1872 1 1 7.6394400000e-01 4.8289217925e+01 3.9168283953e+01 3.2525780709e+01
1873 1 1 7.6394400000e-01 4.5755033797e+01 2.6537407628e+01 3.5588615859e+01
1874 1 1 7.6394400000e-01 1.4261827669e+01 4.4558500876e+01 5.3776389371e+01
1875 1 1 7.6394400000e-01 4.6563306999e+01 1.1730250034e+01 5.2381928378e+01
1876 1 1 7.6394400000e-01 2.0165121313e+01 2.6595930469e+01 9.5795602786e+00
1877 1 1 7.6394400000e-01 3.4260982965e+01 3.2743322152e+01 4.2910993905e+01
1878 1 1 7.6394400000e-01 2.2418766451e+01 1.9378045017e+01 5.6541429578e+01
1879 1 1 7.6394400000e-01 5.2841835204e+01 3.7846288976e+01 5.6408143027e+01
1880 1 1 7.6394400000e-01 5.5252110150e+01 3.0653921573e+01 4.1164708078e+01
1881 1 1 7.6394400000e-01 2.0917346217e+01 3.9047650137e+01 1.4105148852e+01
1882 1 1 7.6394400000e-01 5.6538451260e+01 1.2992309537e+01 3.9095255355e+01
1883 1 1 7.6394400000e-01 8.9903817555e+00 8.3653739367e+00 6.2252250887e+01
1884 1 1 7.6394400000e-01 8.3358218649e+00 1.4566941905e+01 5.3767024337e+01
1885 1 1 7.6394400000e-01 4.7943528002e+01 1.5005439459e+01 6.3494996867e+01
1886 1 1 7.6394400000e-01 4.7933728295e+01 6.1979916418e+01 2.1379818226e+01
1887 1 1 7.6394400000e-01 7.0424109115e+00 3.4873142594e+01 4.7878937395e+01
1888 1 1 7.6394400000e-01 2.2338162795e+01 2.0895418269e+01 6.3831983052e+01
1889 1 1 7.6394400000e-01 4.4950370093e+01 3.3051738794e+01 7.9776993758e+00
1890 1 1 7.6394400000e-01 3.4103422996e+01 2.6110238983e+01 3.8654420724e+01
1891 1 1 7.6394400000e-01 1.1319578628e+01 2.3366044791e+01 5.4392348408e+01
1892 1 1 7.6394400000e-01 3.2594060077e+01 3.7604289720e+00 2.9010131838e+01
1893 1 1 7.6394400000e-01 2.8443036106e+01 3.0099251860e+01 4.4762339225e+01
1894 1 1 7.6394400000e-01 1.4719910286e+00 1.8287604509e+00 6.1985780752e+01
1895 1 1 7.6394400000e-01 4.9993979155e+01 2.5321842744e+01 4.8681274984e+01
1896 1 1 7.6394400000e-01 6.9719085801e+00 2.7734702309e+01 1.6069429289e+01
1897 1 1 7.6394400000e-01 5.7633209026e+01 6.1547027549e+01 1.9935072796e+01
1898 1 1 7.6394400000e-01 3.7062082932e+00 5.2938166468e+01 4.1647432672e+01
1899 1 1 7.6394400000e-01 2.6049884467e+00 6.0391473627e+01 4.4139728575e+01
1900 1 1 7.6394400000e-01 3.7086718897e+01 2.3337377000e+01 1.5513283424e+00
1901 1 1 7.6394400000e-01 3.8449110413e+01 2.3737847374e+01 9.5953425324e+00
1902 1 1 7.6394400000e-01 4.0661863083e+01 5.9507539282e+01 5.6294631008e+01
1903 1 1 7.6394400000e-01 2.2085579682e+01 1.6465511809e+01 1.3214965941e+01
1904 1 1 7.6394400000e-01 5.4650477786e+01 6.8878526462e+00 2.9175936665e+01
1905 1 1 7.6394400000e-01 1.1053337914e+01 1.3865429650e+01 1.7434761363e+01
1906 1 1 7.6394400000e-01 1.7983719907e+01 2.4744378966e+01 4.1617054335e+01
1907 1 1 7.6394400000e-01 4.0998678823e+01 5.3914285938e+01 2.5314634065e+01
1908 1 1 7.6394400000e-01 3.8265884253e+01 5.4503456546e+01 3.2052108370e+00
1909 1 1 7.6394400000e-01 1.6022012669e+01 4.1442608587e+01 2.6256365157e+00
1910 1 1 7.6394400000e-01 5.8676376889e+01 5.9196764574e+01 4.4812141690e+01
1911 1 1 7.6394400000e-01 2.2538035349e+01 3.0723914389e+01 2.4003097258e+01
1912 1 1 7.6394400000e-01 3.5403886545e-01 5.6009003081e+01 3.5365354930e+01
1913 1 1 7.6394400000e-01 9.7127370567e+00 6.0138689457e+01 6.3937109760e+01
1914 1 1 7.6394400000e-01 5.8947863853e+00 5.7955697637e+01 1.7394525454e+01
1915 1 1 7.6394400000e-01 3.5990964627e+01 3.9875478406e+00 2.6173842503e+01
1916 1 1 7.6394400000e-01 1.3994837984e+01 3.8793435237e+01 3.7081685849e+01
1917 1 1 7.6394400000e-01 3.2534857445e+01 4.1790617663e+01 3.4417895690e+01
1918 1 1 7.6394400000e-01 5.9735765387e+01 5.5143051821e+01 5.5807318776e+01
1919 1 1 7.6394400000e-01 2.3785176376e+01 3.6298183044e+01 1.2859839193e+01
1920 1 1 7.6394400000e-01 3.5817199497e+01 8.2946265387e+00 3.1920472537e+01
1921 1 1 7.6394400000e-01 3.1865097781e+01 5.7033166831e+00 2.0555497983e+01
1922 1 1 7.6394400000e-01 4.5268501066e+01 2.7400080415e+01 4.9106680777e+01
1923 1 1 7.6394400000e-01 4.2749050535e+01 4.5973450925e+01 2.1625272803e+01
1924 1 1 7.6394400000e-01 4.4912108989e+01 9.1651098453e+00 3.1807258829e+01
1925 1 1 7.6394400000e-01 3.0252167285e+01 3.1819032818e+01 5.8898567499e+01
1926 1 1 7.6394400000e-01 5.7151410868e+01 1.9289402973e+00 3.6308642331e+01
1927 1 1 7.6394400000e-01 9.1337173688e+00 2.7884718269e+00 2.2217580791e+01
1928 1 1 7.6394400000e-01 1.4386100793e+01 1.6438643384e+01 3.7297642735e+01
1929 1 1 7.6394400000e-01 3.7254091448e+01 5.3523432534e+01 9.6619022656e+00
1930 1 1 7.6394400000e-01 2.7905380113e+01 4.6894350756e+01 3.8186185555e+01
1931 1 1 7.6394400000e-01 5.3532362041e+01 4.9525317845e+00 1.9660101714e+01
1932 1 1 7.6394400000e-01 6.2567575326e+01 5.5520273386e+01 3.7795504495e+01
1933 1 1 7.6394400000e-01 2.5765691353e+01 1.2152039524e+01 6.2478793059e+01
1934 1 1 7.6394400000e-01 5.9213814980e+01 2.7435475066e+00 3.7643664111e+01
1935 1 1 7.6394400000e-01 2.5881040221e+01 7.9060989351e+00 1.1903424515e+01
1936 1 1 7.6394400000e-01 2.1551246125e+01 1.1489654658e+01 2.5008443825e+01
1937 1 1 7.6394400000e-01 7.1238490393e+00 3.0229888752e+01 2.8862468905e+01
1938 1 1 7.6394400000e-01 4.4330916947e+01 2.3245183257e+00 1.3973983098e+01
1939 1 1 7.6394400000e-01 5.0505069561e+01 5.0777347526e+01 5.3519310010e+01
1940 1 1 7.6394400000e-01 4.4826932028e+01 5.7243730466e+01 2.2441297955e+01
1941 1 1 7.6394400000e-01 2.8494552090e+01 5.5229590310e+01 4.2059142999e+01
1942 1 1 7.6394400000e-01 8.2875658538e+00 4.3242941505e+01 2.0484037065e+01
1943 1 1 7.6394400000e-01 3.7143173983e+01 1.5243562136e+01 1.2079111129e+01
1944 1 1 7.6394400000e-01 1.2495456378e+01 5.9872608765e+01 2.2472832591e+01
1945 1 1 7.6394400000e-01 3.9418229561e+01 2.9117887204e+01 1.6042894021e+01
1946 1 1 7.6394400000e-01 3.2678503707e+00 4.5843082715e+00 1.6200722886e+01
1947 1 1 7.6394400000e-01 2.3802880214e+01 2.4536930031e+01 1.7339330099e+01
1948 1 1 7.6394400000e-01 3.3364885692e+01 1.7545578932e+01 9.9322610142e+00
1949 1 1 7.6394400000e-01 2.6349537645e+01 4.1767158985e+01 2.4558746007e+01
1950 1 1 7.6394400000e-01 1.0768716531e+01 1.8989561382e+01 5.6365947173e+01
1951 1 1 7.6394400000e-01 4.8390571018e+00 2.5937908288e+01 6.1141027818e+01
1952 1 1 7.6394400000e-01 1.8264171225e+01 5.4285269062e+01 5.6418240296e+01
1953 1 1 7.6394400000e-01 1.2345174313e+01 1.5665417798e+00 4.2680604258e+01
1954 1 1 7.6394400000e-01 2.5635189381e+01 3.1247826173e+01 3.0808447031e+01
1955 1 1 7.6394400000e-01 3.8532331884e+01 1.9525921432e+01 9.4144945101e-02
1956 1 1 7.6394400000e-01 2.2358608340e+01 2.1028177333e+01 1.5450042467e+01
1957 1 1 7.6394400000e-01 5.3300967959e+01 6.2411178960e+01 6.1134378805e+01
1958 1 1 7.6394400000e-01 2.8106360653e+01 2.6233337783e+00 3.1746677118e+01
1959 1 1 7.6394400000e-01 1.3504069527e+01 4.7925158506e+01 5.0268360547e+01
1960 1 1 7.6394400000e-01 6.3091813576e+01 2.9955287164e+01 3.8275539414e+00
1961 1 1 7.6394400000e-01 3.6787659297e+01 1.7715347892e+00 3.4772824009e+01
1962 1 1 7.6394400000e-01 1.3100155447e+01 3.2057154912e+01 5.4105976533e+01
1963 1 1 7.6394400000e-01 4.9733440546e+01 4.0698829586e+01 4.4612292513e+01
1964 1 1 7.6394400000e-01 3.0158452018e+01 4.4670651523e+01 5.5361081058e+01
1965 1 1 7.6394400000e-01 1.2205830034e+01 2.9196533170e+01 5.5614922214e+01
1966 1 1 7.6394400000e-01 1.4797355196e+01 2.1262438187e+01 5.9864646311e+01
1967 1 1 7.6394400000e-01 4.8557019571e+01 1.6074127354e+00 6.1618200245e+00
1968 1 1 7.6394400000e-01 4.6219568499e+01 6.0590153307e+01 3.1869627560e+01
1969 1 1 7.6394400000e-01 5.1661326561e+01 6.2258108640e+01 4.8055798108e+00
1970 1 1 7.6394400000e-01 3.0957013315e+01 7.1373410540e-01 1.0643245167e+01
1971 1 1 7.6394400000e-01 1.5024422691e+01 3.8705636089e+01 5.9769316231e+01
1972 1 1 7.6394400000e-01 5.0078857726e+01 5.8567814819e+01 5.3194332165e+01
1973 1 1 7.6394400000e-01 5.2342427297e+01 5.5614739440e+00 7.1751038812e+00
1974 1 1 7.6394400000e-01 4.3950995580e+01 1.2134787755e+01 2.3104015237e+01
1975 1 1 7.6394400000e-01 4.4079587267e+01 4.9140036390e+01 1.3685097059e+00
1976 1 1 7.6394400000e-01 4.3159277364e+01 5.4098382699e+01 3.9872165054e+01
1977 1 1 7.6394400000e-01 5.1961695147e+01 4.4406078650e+00 3.1845759595e+01
1978 1 1 7.6394400000e-01 1.0342195373e+01 4.4951714294e+01 5.0767286660e+01
1979 1 1 7.6394400000e-01 5.4260574515e+01 5.3152892545e+01 3.7567210705e+01
1980 1 1 7.6394400000e-01 4.4485250988e+01 4.5498332938e+01 6.0003994909e+01
1981 1 1 7.6394400000e-01 1.5606195698e+01 2.4755030634e+01 5.3346459276e+01
1982 1 1 7.6394400000e-01 4.4635569393e+01 3.5685806649e+01 4.3689790564e+01
1983 1 1 7.6394400000e-01 2.3583979599e+01 1.9870196951e+01 4.7867745580e+01
1984 1 1 7.6394400000e-01 7.3247897237e+00 4.3771972372e+01 1.7200127990e+01
1985 1 1 7.6394400000e-01 8.9973828145e+00 1.2849968863e+01 4.6597455045e+01
1986 1 1 7.6394400000e-01 7.2201445917e-01 2.7088210190e+01 3.7710237402e+01
1987 1 1 7.6394400000e-01 4.9224939003e+01 1.5975273658e+01 5.0403767027e+01
1988 1 1 7.6394400000e-01 4.6291389860e+01 2.2131440346e+01 6.3224460677e+01
1989 1 1 7.6394400000e-01 5.8426849083e+01 4.9354451528e+01 5.6715539334e+01
1990 1 1 7.6394400000e-01 4.6687956370e+01 2.0177106754e+01 4.1824084676e+00
1991 1 1 7.6394400000e-01 3.6669707554e+01 4.9195594345e+01 4.8382097556e+01
1992 1 1 7.6394400000e-01 5.9731753260e+01 6.3610772632e+01 1.1214513788e+01
1993 1 1 7.6394400000e-01 3.4365815886e+01 4.7116305773e+01 3.2929792377e+01
1994 1 1 7.6394400000e-01 2.0429789052e+00 6.4994809664e+00 3.7374278928e+01
1995 1 1 7.6394400000e-01 3.1417267421e+01 3.4589103629e+01 5.3925941302e+01
1996 1 1 7.6394400000e-01 1.5434891685e+01 8.7329127565e+00 1.8061204604e+01
1997 1 1 7.6394400000e-01 3.4629132288e+01 4.2958731619e+01 2.0948481313e+01
1998 1 1 7.6394400000e-01 3.6551647914e+01 9.5443331592e+00 3.5940914672e+01
1999 1 1 7.6394400000e-01 1.5674942410e+01 5.1795032648e+01 9.3698420298e+00
2000 1 1 7.6394400000e-01 5.5546632720e+01 1.6594260433e+01 3.3066375229e+01
2001 1 1 7.6394400000e-01 6.0616930918e+00 2.7670132159e+01 4.1117220753e+01
2002 1 1 7.6394400000e-01 5.6466009009e+01 3.6656125194e+01 1.6703096485e+01
2003 1 1 7.6394400000e-01 6.1092950530e+01 5.8311676243e+01 6.9426265637e+00

Ellipsoids

1 1.0000000000e+00 1.0000000000e+00 2.0000000000e+00 9.7135601383e-01 -1.8364601410e-01 -1.5080330200e-01 0.0000000000e+00
2 1.0000000000e+00 1.0000000000e+00 2.0000000000e+00 9.6058611609e-01 2.0343802111e-01 1.8943939702e-01 -0.0000000000e+00
3 1.0000000000e+00 1.0000000000e+00 2.0000000000e+00 8.9749421610e-01 4.0010355098e-01 -1.8552972959e-01 0.0000000000e+00
4 1.0000000000e+00 1.0000000000e+00 2.0000000000e+00 7.5738532057e-01 -4.1524235388e-01 -5.0392585142e-01 0.0000000000e+00
5 1.0000000000e+00 1.0000000000e+00 2.0000000000e+00 7.1244642476e-01 -5.0870362704e-01 -4.8336395365e-01 0.0000000000e+00
6 1.0000000000e+00 1.0000000000e+00 2.0000000000e+00 9.0451888572e-01 3.7018166172e-01 -2.1168637817e-01 0.0000000000e+00
7 1.0000000000e+00 1.0000000000e+00 2.0000000000e+00 4.9504288830e-01 3.5778616150e-01 -7.9178380975e-01 0.0000000000e+00
8 1.0000000000e+00 1.0000000000e+00 2.0000000000e+00 6.8550978545e-01 8.1379428852e-02 -7.2350101770e-01 0.0000000000e+00
9 1.0000000000e+00 1.0000000000e+00 2.0000000000e+00 6.7973623537e-01 -4.0195156330e-01 6.1350924287e-01 0.0000000000e+00
10 1.0000000000e+00 1.0000000000e+00 2.0000000000e+00 3.0212053913e-01 -9.3137792401e-01 2.0312149692e-01 0.0000000000e+00
11 1.0000000000e+00 1.0000000000e+00 2.0000000000e+00 7.7628542346e-01 1.3261778690e-01 6.1627385464e-01 -0.0000000000e+00
12 1.0000000000e+00 1.0000000000e+00 2.0000000000e+00 8.0287397435e-01 7.3589895299e-02 5.9158930740e-01 -0.0000000000e+00
13 1.0000000000e+00 1.0000000000e+00 2.0000000000e+00 8.2173518113e-01 -9.0129972209e-02 5.6269697014e-01 0.0000000000e+00
14 1.0000000000e+00 1.0000000000e+00 2.0000000000e+00 8.8481011450e-01 3.9619661438e-01 -2.4523316260e-01 0.0000000000e+00
15 1.0000000000e+00 1.0000000000e+00 2.0000000000e+00 6.9416751208e-01 2.1763382892e-01 6.8612461090e-01 -0.0000000000e+00
16 1.0000000000e+00 1.0000000000e+00 2.0000000000e+00 9.6199009918e-01 2.1851281381e-01 1.6379010737e-01 -0.0000000000e+00
17 1.0000000000e+00 1.0000000000e+00 2.0000000000e+00 6.9064488580e-01 4.2607285786e-02 -7.2193785114e-01 0.0000000000e+00
18 1.0000000000e+00 1.0000000000e+00 2.0000000000e+00 7.7742847405e-01 -3.8645741087e-01 4.9624151108e-01 0.0000000000e+00
19 1.0000000000e+00 1.0000000000e+00 2.0000000000e+00 8.1824607928e-01 -1.2447866212e-01 -5.6122937951e-01 0.0000000000e+00
20 1.0000000000e+00 1.0000000000e+00 2.0000000000e+00 6.1752647142e-01 -6.7180777276e-01 4.0906646594e-01 0.0000000000e+00
21 1.0000000000e+00 1.0000000000e+00 2.0000000000e+00 7.6643645228e-01 6.3019305084e-01 1.2422513148e-01 -0.0000000000e+00
22 1.0000000000e+00 1.0000000000e+00 2.0000000000e+00 6.3626632053e-01 -4.3980029140e-01 -6.3383031881e-01 0.0000000000e+00
23 1.0000000000e+00 1.0000000000e+00 2.0000000000e+00 9.4971412632e-01 -2.2161675624e-01 -2.2119921253e-01 0.0000000000e+00
24 1.0000000000e+00 1.0000000000e+00 2.0000000000e+00 5.8176567343e-01 -1.6213964614e-01 7.9703164076e-01 0.0000000000e+00
25 1.0000000000e+00 1.0000000000e+00 2.0000000000e+00 9.7923853939e-01 -1.4258183345e-01 -1.4409130350e-01 0.0000000000e+00
26 1.0000000000e+00 1.0000000000e+00 2.0000000000e+00 6.0678639526e-01 -7.4359096046e-01 -2.8086073782e-01 0.0000000000e+00
27 1.0000000000e+00 1.0000000000e+00 2.0000000000e+00 9.9863058335e-01 4.0508836157e-02 -3.3105772691e-02 0.0000000000e+00
28 1.0000000000e+00 1.0000000000e+00 2.0000000000e+00 9.5367380294e-01 1.4360041774e-01 2.6435808594e-01 -0.0000000000e+00
29 1.0000000000e+00 1.0000000000e+00 2.0000000000e+00 5.3758460028e-01 7.4296209566e-01 3.9876073271e-01 -0.0000000000e+00
30 1.0000000000e+00 1.0000000000e+00 2.0000000000e+00 5.9684967139e-01 7.0478961685e-01 -3.8346064431e-01 0.0000000000e+00
31 1.0000000000e+00 1.0000000000e+00 2.0000000000e+00 8.6783060866e-01 4.6761708356e-01 1.6794135235e-01 -0.0000000000e+00
32 1.0000000000e+00 1.0000000000e+00 2.0000000000e+00 9.6900209680e-01 -2.0281140142e-01 -1.4107612079e-01 0.0000000000e+00
33 1.0000000000e+00 1.0000000000e+00 2.0000000000e+00 9.0760736796e-01 -4.1779326026e-01 4.1202637262e-02 0.0000000000e+00
34 1.0000000000e+00 1.0000000000e+00 2.0000000000e+00 9.2231295206e-01 -8.4358835839e-02 -3.7712385932e-01 0.0000000000e+00
35 1.0000000000e+00 1.0000000000e+00 2.0000000000e+00 8.3898351162e-01 9.5152657364e-02 5.3577293607e-01 -0.0000000000e+00
36 1.0000000000e+00 1.0000000000e+00 2.0000000000e+00 6.0402425436e-01 -4.1919913322e-01 6.7781028825e-01 0.0000000000e+00
37 1.0000000000e+00 1.0000000000e+00 2.0000000000e+00 4.7609329769e-01 8.6114449891e-01 1.7822829150e-01 -0.0000000000e+00
38 1.0000000000e+00 1.0000000000e+00 2.0000000000e+00 2.9710174445e-01 -2.5125323200e-01 9.2119616090e-01 0.0000000000e+00
39 1.0000000000e+00 1.0000000000e+00 2.0000000000e+00 6.8632305226e-01 3.2225781486e-01 -6.5200503733e-01 0.0000000000e+00
40 1.0000000000e+00 1.0000000000e+00 2.0000000000e+00 8.1421016115e-01 1.1421951981e-01 -5.6922378269e-01 0.0000000000e+00
41 1.0000000000e+00 1.0000000000e+00 2.0000000000e+00 6.6933373042e-01 -5.8226228835e-01 -4.6147912725e-01 0.0000000000e+00
42 1.0000000000e+00 1.0000000000e+00 2.0000000000e+00 6.9007086801e-01 3.5816719229e-01 6.2890258347e-01 -0.0000000000e+00
43 1.0000000000e+00 1.0000000000e+00 2.0000000000e+00 9.5887749372e-01 2.2062766286e-02 -2.8296145742e-01 0.0000000000e+00
44 1.0000000000e+00 1.0000000000e+00 2.0000000000e+00 6.1223247060e-01 7.3959724802e-02 7.8721112864e-01 -0.0000000000e+00
45 1.0000000000e+00 1.0000000000e+00 2.0000000000e+00 8.5683336466e-01 2.7707129884e-01 -4.3481959544e-01 0.0000000000e+00
46 1.0000000000e+00 1.0000000000e+00 2.0000000000e+00 5.2112871598e-01 8.5079595033e-01 -6.7610001359e-02 0.0000000000e+00
47 1.0000000000e+00 1.0000000000e+00 2.0000000000e+00 4.9812312741e-01 -6.7301909287e-01 -5.4673453392e-01 0.0000000000e+00
48 1.0000000000e+00 1.0000000000e+00 2.0000000000e+00 9.5619640557e-01 -1.6086641854e-01 2.4456170870e-01 0.0000000000e+00
49 1.0000000000e+00 1.0000000000e+00 2.0000000000e+00 7.5376496032e-01 7.3516817831e-02 -6.5301888340e-01 0.0000000000e+00
50 1.0000000000e+00 1.0000000000e+00 2.0000000000e+00 8.2555034435e-01 -4.8702403022e-01 -2.8508634295e-01 0.0000000000e+00
51 1.0000000000e+00 1.0000000000e+00 2.0000000000e+00 3.2898231248e-01 -8.5263270917e-01 4.0594100721e-01 0.0000000000e+00
52 1.0000000000e+00 1.0000000000e+00 2.0000000000e+00 6.3694608192e-01 1.7758279901e-01 -7.5017600483e-01 0.0000000000e+00
53 1.0000000000e+00 1.0000000000e+00 2.0000000000e+00 4.3643254030e-01 -8.3861301324e-01 -3.2596756248e-01 0.0000000000e+00
54 1.0000000000e+00 1.0000000000e+00 2.0000000000e+00 9.7813262939e-01 1.1246942447e-02 -2.0767779277e-01 0.0000000000e+00
55 1.0000000000e+00 1.0000000000e+00 2.0000000000e+00 3.2555772815e-01 -1.1130371915e-01 9.3894816031e-01 0.0000000000e+00
56 1.0000000000e+00 1.0000000000e+00 2.0000000000e+00 8.4709153672e-01 -4.2174502777e-01 -3.2336830391e-01 0.0000000000e+00
57 1.0000000000e+00 1.0000000000e+00 2.0000000000e+00 8.7652032888e-01 6.7652733858e-02 -4.7658705465e-01 0.0000000000e+00
58 1.0000000000e+00 1.0000000000e+00 2.0000000000e+00 3.6873979504e-01 7.0662276052e-01 -6.0391658188e-01 0.0000000000e+00
59 1.0000000000e+00 1.0000000000e+00 2.0000000000e+00 6.1959208837e-01 -3.7397939036e-01 6.9010510766e-01 0.0000000000e+00
60 1.0000000000e+00 1.0000000000e+00 2.0000000000e+00 6.1348608781e-01 7.3856749235e-01 -2.7955836476e-01 0.0000000000e+00
61 1.0000000000e+00 1.0000000000e+00 2.0000000000e+00 8.3692675376e-01 4.1169092795e-01 -3.6064413026e-01 0.0000000000e+00
62 1.0000000000e+00 1.0000000000e+00 2.0000000000e+00 5.4401671066e-01 8.3774674562e-01 4.7182716368e-02 -0.0000000000e+00
63 1.0000000000e+00 1.0000000000e+00 2.0000000000e+00 7.0173918001e-01 7.1184723087e-01 2.8907492864e-02 -0.0000000000e+00
64 1.0000000000e+00 1.0000000000e+00 2.0000000000e+00 6.2005865753e-01 6.5538168273e-01 4.3127962063e-01 -0.0000000000e+00
65 1.0000000000e+00 1.0000000000e+00 2.0000000000e+00 2.8443334254e-01 -1.3463959425e-01 -9.4919431799e-01 0.0000000000e+00
66 1.0000000000e+00 1.0000000000e+00 2.0000000000e+00 5.4712411901e-01 1.1817681363e-01 8.2866726683e-01 -0.0000000000e+00
67 1.0000000000e+00 1.0000000000e+00 2.0000000000e+00 6.9072476351e-01 -2.6268937051e-01 6.7371625755e-01 0.0000000000e+00
68 1.0000000000e+00 1.0000000000e+00 2.0000000000e+00 5.5797844885e-01 3.3563138651e-01 7.5895429573e-01 -0.0000000000e+00
69 1.0000000000e+00 1.0000000000e+00 2.0000000000e+00 4.5898313503e-01 1.6328976035e-02 8.8829490953e-01 -0.0000000000e+00
70 1.0000000000e+00 1.0000000000e+00 2.0000000000e+00 7.4595648632e-01 -3.6995629789e-01 -5.5378809861e-01 0.0000000000e+00
71 1.0000000000e+00 1.0000000000e+00 2.0000000000e+00 4.0190997057e-01 -2.1160058607e-01 -8.9089481283e-01 0.0000000000e+00
72 1.0000000000e+00 1.0000000000e+00 2.0000000000e+00 1.9242283677e-01 8.9883515436e-01 3.9378778191e-01 -0.0000000000e+00
73 1.0000000000e+00 1.0000000000e+00 2.0000000000e+00 5.6042328608e-01 8.1268843811e-01 1.5957206204e-01 -0.0000000000e+00
74 1.0000000000e+00 1.0000000000e+00 2.0000000000e+00 8.2982189883e-01 -4.0234387676e-01 -3.8667172260e-01 0.0000000000e+00
75 1.0000000000e+00 1.0000000000e+00 2.0000000000e+00 8.5328607530e-01 4.8976482838e-01 -1.7897845285e-01 0.0000000000e+00
76 1.0000000000e+00 1.0000000000e+00 2.0000000000e+00 3.5820943824e-01 4.3943366103e-01 8.2376213552e-01 -0.0000000000e+00
77 1.0000000000e+00 1.0000000000e+00 2.0000000000e+00 4.4117775070e-01 -6.0125321493e-01 6.6622576040e-01 0.0000000000e+00
78 1.0000000000e+00 1.0000000000e+00 2.0000000000e+00 7.0767855072e-01 -6.4046922624e-01 2.9831231804e-01 0.0000000000e+00
79 1.0000000000e+00 1.0000000000e+00 2.0000000000e+00 7.7265987254e-01 6.3211744272e-01 -5.8517176784e-02 0.0000000000e+00
80 1.0000000000e+00 1.0000000000e+00 2.0000000000e+00 9.4293926497e-01 -3.3161966985e-01 -2.9898781835e-02 0.0000000000e+00
81 1.0000000000e+00 1.0000000000e+00 2.0000000000e+00 3.6119937529e-01 -8.2755933116e-01 4.2974476692e-01 0.0000000000e+00
82 1.0000000000e+00 1.0000000000e+00 2.0000000000e+00 1.2957565219e-01 3.7735920029e-01 -9.1695702425e-01 0.0000000000e+00
83 1.0000000000e+00 1.0000000000e+00 2.0000000000e+00 4.3904023783e-01 8.2766782834e-01 -3.4958494747e-01 0.0000000000e+00
84 1.0000000000e+00 1.0000000000e+00 2.0000000000e+00 3.0389471372e-01 7.5400788956e-01 5.8234019736e-01 -0.0000000000e+00
85 1.0000000000e+00 1.0000000000e+00 2.0000000000e+00 9.9034990313e-02 -9.9286401902e-01 6.6431245847e-02 0.0000000000e+00
86 1.0000000000e+00 1.0000000000e+00 2.0000000000e+00 5.7552284175e-01 -8.1778488074e-01 -1.1608009889e-03 0.0000000000e+00
87 1.0000000000e+00 1.0000000000e+00 2.0000000000e+00 3.2148361742e-01 8.9532212034e-01 3.0829626102e-01 -0.0000000000e+00
88 1.0000000000e+00 1.0000000000e+00 2.0000000000e+00 2.5432069552e-01 4.1560191219e-01 8.7326744724e-01 -0.0000000000e+00
89 1.0000000000e+00 1.0000000000e+00 2.0000000000e+00 5.7852323515e-01 4.7683266538e-01 -6.6177146781e-01 0.0000000000e+00
90 1.0000000000e+00 1.0000000000e+00 2.0000000000e+00 8.0165156717e-01 1.4884884675e-01 5.7896354434e-01 -0.0000000000e+00
91 1.0000000000e+00 1.0000000000e+00 2.0000000000e+00 8.0257733202e-01 -5.2463823182e-01 -2.8394427595e-01 0.0000000000e+00
92 1.0000000000e+00 1.0000000000e+00 2.0000000000e+00 8.3486339512e-01 4.8104204658e-01 2.6758486675e-01 -0.0000000000e+00
93 1.0000000000e+00 1.0000000000e+00 2.0000000000e+00 7.4237730646e-01 -5.9740276294e-01 -3.0329173033e-01 0.0000000000e+00
94 1.0000000000e+00 1.0000000000e+00 2.0000000000e+00 4.0142435359e-01 -7.9435528522e-01 -4.5591465120e-01 0.0000000000e+00
95 1.0000000000e+00 1.0000000000e+00 2.0000000000e+00 9.1946732528e-01 1.8264037023e-01 3.4816997704e-01 -0.0000000000e+00
96 1.0000000000e+00 1.0000000000e+00 2.0000000000e+00 9.2194825060e-01 -3.2595930248e-01 2.0919358578e-01 0.0000000000e+00
97 1.0000000000e+00 1.0000000000e+00 2.0000000000e+00 9.6639549669e-01 -2.2462608283e-01 -1.2499146729e-01 0.0000000000e+00
98 1.0000000000e+00 1.0000000000e+00 2.0000000000e+00 6.5174130216e-01 -4.6821966520e-01 5.9666038932e-01 0.0000000000e+00
99 1.0000000000e+00 1.0000000000e+00 2.0000000000e+00 9.4206228792e-01 2.4468773914e-02 3.3454435398e-01 -0.0000000000e+00
100 1.0000000000e+00 1.0000000000e+00 2.0000000000e+00 8.3654978064e-01 -1.0974085399e-01 -5.3678804894e-01 0.0000000000e+00
101 1.0000000000e+00 1.0000000000e+00 2.0000000000e+00 2.0251037830e-01 -3.1238704900e-01 9.2811846135e-01 0.0000000000e+00
102 1.0000000000e+00 1.0000000000e+00 2.0000000000e+00 9.4922900322e-01 2.7138571794e-02 -3.1341314167e-01 0.0000000000e+00
103 1.0000000000e+00 1.0000000000e+00 2.0000000000e+00 1.8750804477e-01 -6.1902345933e-01 -7.6266027164e-01 0.0000000000e+00
104 1.0000000000e+00 1.0000000000e+00 2.0000000000e+00 8.6295613503e-01 -4.0586558301e-01 3.0096484437e-01 0.0000000000e+00
105 1.0000000000e+00 1.0000000000e+00 2.0000000000e+00 1.3893009615e-01 6.4231042821e-02 -9.8821698099e-01 0.0000000000e+00
106 1.0000000000e+00 1.0000000000e+00 2.0000000000e+00 7.8074798493e-01 3.9659535466e-01 4.8285060701e-01 -0.0000000000e+00
107 1.0000000000e+00 1.0000000000e+00 2.0000000000e+00 7.2724214330e-01 3.3625670405e-01 5.9837303916e-01 -0.0000000000e+00
108 1.0000000000e+00 1.0000000000e+00 2.0000000000e+00 4.1774881552e-01 6.7313027179e-01 -6.1023074680e-01 0.0000000000e+00
109 1.0000000000e+00 1.0000000000e+00 2.0000000000e+00 5.2577502697e-01 -5.8240725820e-01 6.1996968201e-01 0.0000000000e+00
110 1.0000000000e+00 1.0000000000e+00 2.0000000000e+00 4.0156419270e-01 6.1504036817e-01 -6.7858053661e-01 0.0000000000e+00
111 1.0000000000e+00 1.0000000000e+00 2.0000000000e+00 5.2104775895e-01 7.1567182927e-01 -4.6510543503e-01 0.0000000000e+00
112 1.0000000000e+00 1.0000000000e+00 2.0000000000e+00 3.6100726691e-01 -3.6286065060e-01 -8.5907269860e-01 0.0000000000e+00
113 1.0000000000e+00 1.0000000000e+00 2.0000000000e+00 4.1507611305e-01 5.2701090596e-01 -7.4160051603e-01 0.0000000000e+00
114 1.0000000000e+00 1.0000000000e+00 2.0000000000e+00 4.9842605548e-01 3.2175205739e-01 8.0501371465e-01 -0.0000000000e+00
115 1.0000000000e+00 1.0000000000e+00 2.0000000000e+00 5.8357745692e-01 7.7825563772e-01 -2.3185235419e-01 0.0000000000e+00
116 1.0000000000e+00 1.0000000000e+00 2.0000000000e+00 4.1147413106e-01 -8.7644911588e-01 -2.5005196808e-01 0.0000000000e+00
117 1.0000000000e+00 1.0000000000e+00 2.0000000000e+00 3.4742657255e-01 5.3560892711e-01 7.6968685443e-01 -0.0000000000e+00
118 1.0000000000e+00 1.0000000000e+00 2.0000000000e+00 8.7761958245e-01 -4.4192515348e-01 -1.8570413896e-01 0.0000000000e+00
119 1.0000000000e+00 1.0000000000e+00 2.0000000000e+00 8.4580533341e-01 3.2095442096e-01 4.2614738958e-01 -0.0000000000e+00
120 1.0000000000e+00 1.0000000000e+00 2.0000000000e+00 4.5440985336e-01 8.8688038785e-01 8.3395820083e-02 -0.0000000000e+00
121 1.0000000000e+00 1.0000000000e+00 2.0000000000e+00 9.3210525760e-01 -3.3690559804e-01 -1.3294512685e-01 0.0000000000e+00
122 1.0000000000e+00 1.0000000000e+00 2.0000000000e+00 6.6121856445e-01 4.7148294870e-01 5.8351849937e-01 -0.0000000000e+00
123 1.0000000000e+00 1.0000000000e+00 2.0000000000e+00 3.2184193118e-01 -9.4587454894e-01 -4.1702625934e-02 0.0000000000e+00
124 1.0000000000e+00 1.0000000000e+00 2.0000000000e+00 6.9269974364e-01 -6.7831854499e-01 2.4505308953e-01 0.0000000000e+00
125 1.0000000000e+00 1.0000000000e+00 2.0000000000e+00 1.4939244502e-01 6.2907421172e-02 -9.8677482423e-01 0.0000000000e+00
126 1.0000000000e+00 1.0000000000e+00 2.0000000000e+00 6.3313846766e-01 7.5101972296e-01 -1.8736343426e-01 0.0000000000e+00
127 1.0000000000e+00 1.0000000000e+00 2.0000000000e+00 7.2789564635e-01 2.1503971349e-01 -6.5109588360e-01 0.0000000000e+00
128 1.0000000000e+00 1.0000000000e+00 2.0000000000e+00 4.6281935811e-01 -7.8073415278e-02 8.8300780494e-01 0.0000000000e+00
129 1.0000000000e+00 1.0000000000e+00 2.0000000000e+00 6.0908700503e-01 -5.9919445309e-01 -5.1959506127e-01 0.0000000000e+00
130 1.0000000000e+00 1.0000000000e+00 2.0000000000e+00 7.6244396599e-01 -4.9908633552e-01 -4.1181552717e-01 0.0000000000e+00
131 1.0000000000e+00 1.0000000000e+00 2.0000000000e+00 2.5897884556e-01 5.1390013401e-01 8.1782431476e-01 -0.0000000000e+00
132 1.0000000000e+00 1.0000000000e+00 2.0000000000e+00 9.1678605751e-01 -3.1930224353e-01 -2.3989456440e-01 0.0000000000e+00
133 1.0000000000e+00 1.0000000000e+00 2.0000000000e+00 9.0907890348e-01 -1.0774528440e-01 -4.0245061925e-01 0.0000000000e+00
134 1.0000000000e+00 1.0000000000e+00 2.0000000000e+00 4.4452714783e-01 8.9380195436e-01 5.9276312475e-02 -0.0000000000e+00
135 1.0000000000e+00 1.0000000000e+00 2.0000000000e+00 7.9360292277e-01 -6.0652948288e-01 -4.8128862104e-02 0.0000000000e+00
136 1.0000000000e+00 1.0000000000e+00 2.0000000000e+00 9.2371835079e-01 3.8290450077e-01 -1.1338064694e-02 0.0000000000e+00
137 1.0000000000e+00 1.0000000000e+00 2.0000000000e+00 6.7113548996e-01 6.8698977663e-01 -2.7860761103e-01 0.0000000000e+00
138 1.0000000000e+00 1.0000000000e+00 2.0000000000e+00 6.7664739361e-01 -7.3617080871e-01 1.4171983568e-02 0.0000000000e+00
139 1.0000000000e+00 1.0000000000e+00 2.0000000000e+00 8.6051837278e-01 3.6991838595e-01 3.5024065705e-01 -0.0000000000e+00
140 1.0000000000e+00 1.0000000000e+00 2.0000000000e+00 6.1191624396e-01 -7.9044522272e-01 2.7474720338e-02 0.0000000000e+00
141 1.0000000000e+00 1.0000000000e+00 2.0000000000e+00 8.0681055068e-01 -5.3885568622e-01 -2.4226284225e-01 0.0000000000e+00
142 1.0000000000e+00 1.0000000000e+00 2.0000000000e+00 8.1112279404e-01 -3.2526503063e-01 4.8608895569e-01 0.0000000000e+00
143 1.0000000000e+00 1.0000000000e+00 2.0000000000e+00 2.3484743017e-01 -4.9060549720e-01 8.3913820713e-01 0.0000000000e+00
144 1.0000000000e+00 1.0000000000e+00 2.0000000000e+00 7.4436325103e-01 6.4780778251e-01 -1.6207537577e-01 0.0000000000e+00
145 1.0000000000e+00 1.0000000000e+00 2.0000000000e+00 9.8955338476e-01 1.3111378754e-01 5.9943918934e-02 -0.0000000000e+00
146 1.0000000000e+00 1.0000000000e+00 2.0000000000e+00 9.5733151321e-01 -9.5451530278e-02 2.7277349427e-01 0.0000000000e+00
147 1.0000000000e+00 1.0000000000e+00 2.0000000000e+00 3.5370353799e-01 -9.3496133549e-01 2.7223305237e-02 0.0000000000e+00
148 1.0000000000e+00 1.0000000000e+00 2.0000000000e+00 3.8937117767e-01 4.9192761654e-01 -7.7871516364e-01 0.0000000000e+00
149 1.0000000000e+00 1.0000000000e+00 2.0000000000e+00 7.3171645686e-01 6.0832695764e-01 3.0745623976e-01 -0.0000000000e+00
150 1.0000000000e+00 1.0000000000e+00 2.0000000000e+00 4.5050123407e-01 -7.7124737541e-02 -8.8943825697e-01 0.0000000000e+00
151 1.0000000000e+00 1.0000000000e+00 2.0000000000e+00 6.2009961122e-01 -7.2585501757e-01 2.9767594065e-01 0.0000000000e+00
152 1.0000000000e+00 1.0000000000e+00 2.0000000000e+00 6.9824990730e-01 1.2458379400e-02 -7.1574566414e-01 0.0000000000e+00
153 1.0000000000e+00 1.0000000000e+00 2.0000000000e+00 4.4795158295e-01 -2.8195039527e-01 -8.4843582783e-01 0.0000000000e+00
154 1.0000000000e+00 1.0000000000e+00 2.0000000000e+00 5.8055960901e-01 7.6033854741e-01 2.9126591580e-01 -0.0000000000e+00
155 1.0000000000e+00 1.0000000000e+00 2.0000000000e+00 2.2802657281e-01 9.0556100045e-01 3.5771938242e-01 -0.0000000000e+00
156 1.0000000000e+00 1.0000000000e+00 2.0000000000e+00 3.1030248158e-01 5.1533257688e-01 7.9883959913e-01 -0.0000000000e+00
157 1.0000000000e+00 1.0000000000e+00 2.0000000000e+00 6.3598206956e-01 -7.6423107789e-01 1.0713387321e-01 0.0000000000e+00
158 1.0000000000e+00 1.0000000000e+00 2.0000000000e+00 9.1114079095e-01 -4.5050302607e-02 -4.0962535237e-01 0.0000000000e+00
159 1.0000000000e+00 1.0000000000e+00 2.0000000000e+00 6.6650991169e-01 7.4410256152e-01 -4.5562216339e-02 0.0000000000e+00
160 1.0000000000e+00 1.0000000000e+00 2.0000000000e+00 5.0452708325e-01 -1.8631419484e-01 -8.4305364187e-01 0.0000000000e+00
161 1.0000000000e+00 1.0000000000e+00 2.0000000000e+00 5.9466223696e-01 -2.8450992807e-01 -7.5195141117e-01 0.0000000000e+00
162 1.0000000000e+00 1.0000000000e+00 2.0000000000e+00 5.8772099051e-01 1.0651933578e-01 -8.0202099001e-01 0.0000000000e+00
163 1.0000000000e+00 1.0000000000e+00 2.0000000000e+00 8.2106693640e-01 5.6247424281e-01 9.7323235249e-02 -0.0000000000e+00
164 1.0000000000e+00 1.0000000000e+00 2.0000000000e+00 9.3773346659e-01 -2.4826106842e-01 2.4294523571e-01 0.0000000000e+00
165 1.0000000000e+00 1.0000000000e+00 2.0000000000e+00 6.1754958734e-01 -7.3192871822e-01 2.8794593004e-01 0.0000000000e+00
166 1.0000000000e+00 1.0000000000e+00 2.0000000000e+00 3.2379416917e-01 -4.6313082086e-01 8.2502556250e-01 0.0000000000e+00
167 1.0000000000e+00 1.0000000000e+00 2.0000000000e+00 5.9219516662e-01 2.2399310093e-01 7.7403615896e-01 -0.0000000000e+00
168 1.0000000000e+00 1.0000000000e+00 2.0000000000e+00 9.0240544557e-01 4.1101526432e-01 -1.2934784230e-01 0.0000000000e+00
169 1.0000000000e+00 1.0000000000e+00 2.0000000000e+00 8.1747381116e-01 -1.3330379578e-01 -5.6032728481e-01 0.0000000000e+00
170 1.0000000000e+00 1.0000000000e+00 2.0000000000e+00 4.8830752579e-01 -8.6575795939e-01 1.0963081686e-01 0.0000000000e+00
171 1.0000000000e+00 1.0000000000e+00 2.0000000000e+00 5.0568443067e-01 -7.3096515323e-01 4.5822832883e-01 0.0000000000e+00
172 1.0000000000e+00 1.0000000000e+00 2.0000000000e+00 3.5231072577e-01 8.1659509965e-01 -4.5721941749e-01 0.0000000000e+00
173 1.0000000000e+00 1.0000000000e+00 2.0000000000e+00 9.1410626149e-01 2.6793518050e-01 -3.0433613285e-01 0.0000000000e+00
174 1.0000000000e+00 1.0000000000e+00 2.0000000000e+00 8.7326369753e-01 3.9967358909e-01 -2.7869613698e-01 0.0000000000e+00
175 1.0000000000e+00 1.0000000000e+00 2.0000000000e+00 5.0924904604e-01 -2.6065097778e-01 8.2019904712e-01 0.0000000000e+00
176 1.0000000000e+00 1.0000000000e+00 2.0000000000e+00 6.1246253143e-01 2.1841807445e-01 7.5972573495e-01 -0.0000000000e+00
177 1.0000000000e+00 1.0000000000e+00 2.0000000000e+00 4.9525038374e-01 7.9988327916e-01 3.3898937614e-01 -0.0000000000e+00
178 1.0000000000e+00 1.0000000000e+00 2.0000000000e+00 7.0097002619e-01 -7.1080650978e-01 5.8267727168e-02 0.0000000000e+00
179 1.0000000000e+00 1.0000000000e+00 2.0000000000e+00 2.7482923028e-01 -4.5767889910e-01 -8.4557608735e-01 0.0000000000e+00
180 1.0000000000e+00 1.0000000000e+00 2.0000000000e+00 4.4405384830e-01 5.1341179610e-01 7.3431907740e-01 -0.0000000000e+00
181 1.0000000000e+00 1.0000000000e+00 2.0000000000e+00 4.7999165036e-01 8.7400194036e-01 7.5687672905e-02 -0.0000000000e+00
182 1.0000000000e+00 1.0000000000e+00 2.0000000000e+00 9.5813952239e-01 5.7246789891e-02 2.8051998268e-01 -0.0000000000e+00
183 1.0000000000e+00 1.0000000000e+00 2.0000000000e+00 9.9619110072e-01 7.2047921795e-02 4.9116064758e-02 -0.0000000000e+00
184 1.0000000000e+00 1.0000000000e+00 2.0000000000e+00 1.0167931077e-01 9.5124996992e-01 2.9117831735e-01 -0.0000000000e+00
185 1.0000000000e+00 1.0000000000e+00 2.0000000000e+00 8.9751673582e-01 -1.4867786820e-01 -4.1516093318e-01 0.0000000000e+00
186 1.0000000000e+00 1.0000000000e+00 2.0000000000e+00 1.7302432259e-01 -9.3952254541e-01 -2.9556720125e-01 0.0000000000e+00
187 1.0000000000e+00 1.0000000000e+00 2.0000000000e+00 9.2411959566e-01 -3.7780903567e-01 5.7125348804e-02 0.0000000000e+00
188 1.0000000000e+00 1.0000000000e+00 2.0000000000e+00 9.4651124728e-01 -3.7220319464e-02 3.2051693652e-01 0.0000000000e+00
189 1.0000000000e+00 1.0000000000e+00 2.0000000000e+00 6.4934953496e-01 -7.6033177404e-01 -1.5516921200e-02 0.0000000000e+00
190 1.0000000000e+00 1.0000000000e+00 2.0000000000e+00 5.8317316964e-01 6.1270406487e-01 -5.3338802302e-01 0.0000000000e+00
191 1.0000000000e+00 1.0000000000e+00 2.0000000000e+00 1.2244314331e-01 7.5920537582e-01 6.3922990698e-01 -0.0000000000e+00
192 1.0000000000e+00 1.0000000000e+00 2.0000000000e+00 5.0622908674e-01 1.3293129289e-01 -8.5209235598e-01 0.0000000000e+00
193 1.0000000000e+00 1.0000000000e+00 2.0000000000e+00 7.8334906282e-01 -5.4937019823e-01 -2.9078622917e-01 0.0000000000e+00
194 1.0000000000e+00 1.0000000000e+00 2.0000000000e+00 7.3114049703e-01 3.8313694767e-02 6.8115022894e-01 -0.0000000000e+00
195 1.0000000000e+00 1.0000000000e+00 2.0000000000e+00 7.0466052283e-01 -4.6384933359e-01 5.3693327639e-01 0.0000000000e+00
196 1.0000000000e+00 1.0000000000e+00 2.0000000000e+00 7.4109520552e-01 -6.6930925561e-01 -5.2943523828e-02 0.0000000000e+00
197 1.0000000000e+00 1.0000000000e+00 2.0000000000e+00 9.3251620005e-01 -2.8973917897e-01 -2.1555682501e-01 0.0000000000e+00
198 1.0000000000e+00 1.0000000000e+00 2.0000000000e+00 9.6448756330e-01 -2.6124522594e-01 -3.8918789188e-02 0.0000000000e+00
199 1.0000000000e+00 1.0000000000e+00 2.0000000000e+00 6.0202280606e-01 5.8567144270e-01 5.4273151944e-01 -0.0000000000e+00
200 1.0000000000e+00 1.0000000000e+00 2.0000000000e+00 9.8871618349e-01 1.4858274944e-01 -1.9065022386e-02 0.0000000000e+00
201 1.0000000000e+00 1.0000000000e+00 2.0000000000e+00 9.9247903356e-01 1.1149062186e-01 5.0549076966e-02 -0.0000000000e+00
202 1.0000000000e+00 1.0000000000e+00 2.0000000000e+00 7.7567266288e-01 2.1867265545e-01 5.9204238853e-01 -0.0000000000e+00
203 1.0000000000e+00 1.0000000000e+00 2.0000000000e+00 9.9141857532e-01 6.0726117307e-03 1.3058457753e-01 -0.0000000000e+00
204 1.0000000000e+00 1.0000000000e+00 2.0000000000e+00 2.5325762473e-01 6.3174313042e-01 -7.3263987926e-01 0.0000000000e+00
205 1.0000000000e+00 1.0000000000e+00 2.0000000000e+00 3.9388646615e-01 -3.6107401958e-01 8.4526859883e-01 0.0000000000e+00
206 1.0000000000e+00 1.0000000000e+00 2.0000000000e+00 4.5407370050e-01 -8.4045699075e-01 2.9571797579e-01 0.0000000000e+00
207 1.0000000000e+00 1.0000000000e+00 2.0000000000e+00 9.7465009349e-01 4.5039199492e-02 2.1915443360e-01 -0.0000000000e+00
208 1.0000000000e+00 1.0000000000e+00 2.0000000000e+00 7.3105914274e-01 -6.4120373297e-01 -2.3326016085e-01 0.0000000000e+00
209 1.0000000000e+00 1.0000000000e+00 2.0000000000e+00 4.6109518292e-01 -6.4224866851e-01 -6.1229721548e-01 0.0000000000e+00
210 1.0000000000e+00 1.0000000000e+00 2.0000000000e+00 3.2294297464e-01 8.7844855444e-01 -3.5218741081e-01 0.0000000000e+00
211 1.0000000000e+00 1.0000000000e+00 2.0000000000e+00 3.0175711400e-01 -5.6331044068e-01 7.6917097682e-01 0.0000000000e+00
212 1.0000000000e+00 1.0000000000e+00 2.0000000000e+00 5.8537363934e-01 4.6700670002e-01 -6.6275368313e-01 0.0000000000e+00
213 1.0000000000e+00 1.0000000000e+00 2.0000000000e+00 4.3779721009e-01 8.1033361013e-01 3.8947791096e-01 -0.0000000000e+00
214 1.0000000000e+00 1.0000000000e+00 2.0000000000e+00 4.0690866074e-01 7.3475138288e-01 -5.4273911520e-01 0.0000000000e+00
215 1.0000000000e+00 1.0000000000e+00 2.0000000000e+00 4.6098247859e-01 7.3385053077e-01 4.9895746604e-01 -0.0000000000e+00
216 1.0000000000e+00 1.0000000000e+00 2.0000000000e+00 8.2633347319e-01 -5.6185506870e-01 3.8624770111e-02 0.0000000000e+00
217 1.0000000000e+00 1.0000000000e+00 2.0000000000e+00 4.3568325543e-01 8.9003268858e-01 -1.3424572319e-01 0.0000000000e+00
218 1.0000000000e+00 1.0000000000e+00 2.0000000000e+00 3.5214313544e-01 8.7833973606e-01 3.2328705545e-01 -0.0000000000e+00
219 1.0000000000e+00 1.0000000000e+00 2.0000000000e+00 7.5490422958e-01 -5.8735754845e-01 -2.9177168205e-01 0.0000000000e+00
220 1.0000000000e+00 1.0000000000e+00 2.0000000000e+00 7.8924141076e-01 5.2402836608e-02 6.1184306669e-01 -0.0000000000e+00
221 1.0000000000e+00 1.0000000000e+00 2.0000000000e+00 2.7840434384e-01 1.6864720887e-01 9.4554171789e-01 -0.0000000000e+00
222 1.0000000000e+00 1.0000000000e+00 2.0000000000e+00 3.8304602079e-01 4.9360220196e-01 -7.8078973621e-01 0.0000000000e+00
223 1.0000000000e+00 1.0000000000e+00 2.0000000000e+00 9.5926845096e-01 -2.7873802656e-01 4.5925499898e-02 0.0000000000e+00
224 1.0000000000e+00 1.0000000000e+00 2.0000000000e+00 2.5376304100e-01 4.2754385275e-01 8.6764657148e-01 -0.0000000000e+00
225 1.0000000000e+00 1.0000000000e+00 2.0000000000e+00 7.9203501311e-01 4.9122748115e-02 -6.0849609170e-01 0.0000000000e+00
226 1.0000000000e+00 1.0000000000e+00 2.0000000000e+00 5.6363819298e-01 8.2188340196e-01 -8.2581238771e-02 0.0000000000e+00
227 1.0000000000e+00 1.0000000000e+00 2.0000000000e+00 3.8708037992e-01 8.6104882665e-01 3.2979341656e-01 -0.0000000000e+00
228 1.0000000000e+00 1.0000000000e+00 2.0000000000e+00 7.9622115083e-01 -4.0461875220e-01 4.4979500257e-01 0.0000000000e+00
229 1.0000000000e+00 1.0000000000e+00 2.0000000000e+00 7.3096458716e-01 6.5847477856e-01 -1.7916957978e-01 0.0000000000e+00
230 1.0000000000e+00 1.0000000000e+00 2.0000000000e+00 8.2344763353e-01 3.2312509725e-01 4.6639486099e-01 -0.0000000000e+00
231 1.0000000000e+00 1.0000000000e+00 2.0000000000e+00 7.4559107593e-01 -6.0073820453e-01 -2.8845720154e-01 0.0000000000e+00
232 1.0000000000e+00 1.0000000000e+00 2.0000000000e+00 1.9271995290e-01 6.0961526387e-02 -9.7935831648e-01 0.0000000000e+00
233 1.0000000000e+00 1.0000000000e+00 2.0000000000e+00 5.3200786801e-01 -2.1100243381e-01 8.2002780520e-01 0.0000000000e+00
234 1.0000000000e+00 1.0000000000e+00 2.0000000000e+00 3.4269947529e-01 -8.2524164194e-01 4.4892460618e-01 0.0000000000e+00
235 1.0000000000e+00 1.0000000000e+00 2.0000000000e+00 9.8735160578e-01 1.5836873887e-01 -7.4932713291e-03 0.0000000000e+00
236 1.0000000000e+00 1.0000000000e+00 2.0000000000e+00 6.9647158163e-01 4.1415247496e-01 5.8600773328e-01 -0.0000000000e+00
237 1.0000000000e+00 1.0000000000e+00 2.0000000000e+00 6.2059361239e-01 -1.0671640567e-01 -7.7683664758e-01 0.0000000000e+00
238 1.0000000000e+00 1.0000000000e+00 2.0000000000e+00 7.3044208609e-01 -9.1567171220e-02 -6.7680854902e-01 0.0000000000e+00
239 1.0000000000e+00 1.0000000000e+00 2.0000000000e+00 6.2636571067e-01 -7.5888046444e-01 -1.7823141472e-01 0.0000000000e+00
240 1.0000000000e+00 1.0000000000e+00 2.0000000000e+00 4.8189062100e-01 -4.6719282370e-01 7.4129096506e-01 0.0000000000e+00
241 1.0000000000e+00 1.0000000000e+00 2.0000000000e+00 5.9912380853e-01 -7.9805973286e-01 6.4430775578e-02 0.0000000000e+00
242 1.0000000000e+00 1.0000000000e+00 2.0000000000e+00 9.1134893147e-01 -1.7241368885e-01 -3.7378689785e-01 0.0000000000e+00
243 1.0000000000e+00 1.0000000000e+00 2.0000000000e+00 9.9979892247e-01 8.1951812618e-03 -1.8301738589e-02 0.0000000000e+00
244 1.0000000000e+00 1.0000000000e+00 2.0000000000e+00 7.0692184895e-01 6.1180228703e-01 3.5490767963e-01 -0.0000000000e+00
245 1.0000000000e+00 1.0000000000e+00 2.0000000000e+00 2.6653356356e-01 7.8226608004e-01 5.6304497113e-01 -0.0000000000e+00
246 1.0000000000e+00 1.0000000000e+00 2.0000000000e+00 6.9153008717e-01 5.5321501398e-01 -4.6447743416e-01 0.0000000000e+00
247 1.0000000000e+00 1.0000000000e+00 2.0000000000e+00 9.8348401743e-01 9.7889996621e-02 1.5223907523e-01 -0.0000000000e+00
248 1.0000000000e+00 1.0000000000e+00 2.0000000000e+00 9.7754514447e-01 1.8334892186e-01 -1.0386849079e-01 0.0000000000e+00
249 1.0000000000e+00 1.0000000000e+00 2.0000000000e+00 3.2131951077e-01 6.1578178292e-01 7.1942099485e-01 -0.0000000000e+00
250 1.0000000000e+00 1.0000000000e+00 2.0000000000e+00 2.9133050469e-01 9.4137582487e-01 1.7011200249e-01 -0.0000000000e+00
251 1.0000000000e+00 1.0000000000e+00 2.0000000000e+00 5.8200519322e-01 5.3296362802e-02 -8.1143665975e-01 0.0000000000e+00
252 1.0000000000e+00 1.0000000000e+00 2.0000000000e+00 8.5282006910e-01 -5.1654106467e-01 7.6702400507e-02 0.0000000000e+00
253 1.0000000000e+00 1.0000000000e+00 2.0000000000e+00 8.4057482115e-01 1.7368048641e-01 -5.1309751381e-01 0.0000000000e+00
254 1.0000000000e+00 1.0000000000e+00 2.0000000000e+00 9.4354358188e-01 -6.1362854248e-02 3.2551514438e-01 0.0000000000e+00
255 1.0000000000e+00 1.0000000000e+00 2.0000000000e+00 9.7473741128e-01 -1.1101810920e-01 1.9380907739e-01 0.0000000000e+00
256 1.0000000000e+00 1.0000000000e+00 2.0000000000e+00 9.2395957594e-01 -3.8183726071e-01 -2.2338495193e-02 0.0000000000e+00
257 1.0000000000e+00 1.0000000000e+00 2.0000000000e+00 7.4607055224e-01 5.8040705199e-01 -3.2635316007e-01 0.0000000000e+00
258 1.0000000000e+00 1.0000000000e+00 2.0000000000e+00 6.6048221478e-01 -9.6923766137e-02 7.4455961985e-01 0.0000000000e+00
259 1.0000000000e+00 1.0000000000e+00 2.0000000000e+00 8.4158518397e-01 -4.8457935850e-01 -2.3857330831e-01 0.0000000000e+00
260 1.0000000000e+00 1.0000000000e+00 2.0000000000e+00 6.7676229184e-01 -6.0883537809e-01 4.1389887984e-01 0.0000000000e+00
261 1.0000000000e+00 1.0000000000e+00 2.0000000000e+00 5.8203089697e-01 -8.0838399365e-01 8.8064486492e-02 0.0000000000e+00
262 1.0000000000e+00 1.0000000000e+00 2.0000000000e+00 2.6387716408e-01 8.7648474639e-01 4.0267025171e-01 -0.0000000000e+00
263 1.0000000000e+00 1.0000000000e+00 2.0000000000e+00 4.1846116923e-01 -9.0299368352e-01 -9.7430269306e-02 0.0000000000e+00
264 1.0000000000e+00 1.0000000000e+00 2.0000000000e+00 9.2244390502e-01 3.6120679931e-01 -1.3648036573e-01 0.0000000000e+00
265 1.0000000000e+00 1.0000000000e+00 2.0000000000e+00 7.4004574445e-01 -6.5758137127e-01 1.4113481598e-01 0.0000000000e+00
266 1.0000000000e+00 1.0000000000e+00 2.0000000000e+00 9.0367060859e-01 3.8521531369e-01 -1.8705238108e-01 0.0000000000e+00
267 1.0000000000e+00 1.0000000000e+00 2.0000000000e+00 7.1076829638e-01 1.4104529073e-01 6.8914051893e-01 -0.0000000000e+00
268 1.0000000000e+00 1.0000000000e+00 2.0000000000e+00 1.4942129904e-01 2.5109035095e-01 9.5636128689e-01 -0.0000000000e+00
269 1.0000000000e+00 1.0000000000e+00 2.0000000000e+00 7.9243514018e-01 3.3870305350e-01 -5.0727388082e-01 0.0000000000e+00
270 1.0000000000e+00 1.0000000000e+00 2.0000000000e+00 6.5896098815e-01 -3.1593140098e-01 6.8261099169e-01 0.0000000000e+00
271 1.0000000000e+00 1.0000000000e+00 2.0000000000e+00 5.2523982441e-01 -6.9342645687e-01 4.9323713948e-01 0.0000000000e+00
272 1.0000000000e+00 1.0000000000e+00 2.0000000000e+00 4.4668121282e-01 8.9350784401e-01 4.6039404988e-02 -0.0000000000e+00
273 1.0000000000e+00 1.0000000000e+00 2.0000000000e+00 9.4563094538e-01 -3.1359786018e-01 -8.6246722997e-02 0.0000000000e+00
274 1.0000000000e+00 1.0000000000e+00 2.0000000000e+00 5.9089155859e-01 -7.9819434527e-01 -1.1718768354e-01 0.0000000000e+00
275 1.0000000000e+00 1.0000000000e+00 2.0000000000e+00 7.6411293930e-01 1.7613859440e-01 6.2056958639e-01 -0.0000000000e+00
276 1.0000000000e+00 1.0000000000e+00 2.0000000000e+00 9.6379080709e-01 -2.6412053617e-01 -3.6709978816e-02 0.0000000000e+00
277 1.0000000000e+00 1.0000000000e+00 2.0000000000e+00 9.8379535097e-01 -6.1508727362e-02 -1.6841432202e-01 0.0000000000e+00
278 1.0000000000e+00 1.0000000000e+00 2.0000000000e+00 9.5051187855e-01 -2.8276158385e-01 1.2873637959e-01 0.0000000000e+00
279 1.0000000000e+00 1.0000000000e+00 2.0000000000e+00 6.0790179536e-01 -4.3929258682e-01 -6.6142076651e-01 0.0000000000e+00
280 1.0000000000e+00 1.0000000000e+00 2.0000000000e+00 9.7282799438e-01 4.3959174754e-02 -2.2731758467e-01 0.0000000000e+00
281 1.0000000000e+00 1.0000000000e+00 2.0000000000e+00 4.8611446731e-01 -8.3072815257e-01 -2.7126271619e-01 0.0000000000e+00
282 1.0000000000e+00 1.0000000000e+00 2.0000000000e+00 6.2579898295e-01 1.7270880659e-01 7.6062296906e-01 -0.0000000000e+00
283 1.0000000000e+00 1.0000000000e+00 2.0000000000e+00 8.8732476061e-01 -1.4066574226e-01 -4.3916730087e-01 0.0000000000e+00
284 1.0000000000e+00 1.0000000000e+00 2.0000000000e+00 5.3342293482e-01 5.1188813801e-01 6.7337248740e-01 -0.0000000000e+00
285 1.0000000000e+00 1.0000000000e+00 2.0000000000e+00 4.9012479362e-01 -8.1327334242e-01 -3.1363060627e-01 0.0000000000e+00
286 1.0000000000e+00 1.0000000000e+00 2.0000000000e+00 8.7841332752e-01 4.0160420209e-01 2.5904457320e-01 -0.0000000000e+00
287 1.0000000000e+00 1.0000000000e+00 2.0000000000e+00 1.8582291955e-01 3.3640393790e-01 -9.2320216266e-01 0.0000000000e+00
288 1.0000000000e+00 1.0000000000e+00 2.0000000000e+00 9.2853315397e-01 -3.3990095176e-01 -1.4931016367e-01 0.0000000000e+00
289 1.0000000000e+00 1.0000000000e+00 2.0000000000e+00 8.0391596356e-01 3.1190750282e-01 -5.0639197587e-01 0.0000000000e+00
290 1.0000000000e+00 1.0000000000e+00 2.0000000000e+00 5.7910675014e-01 3.4027128168e-01 7.4084467117e-01 -0.0000000000e+00
291 1.0000000000e+00 1.0000000000e+00 2.0000000000e+00 2.7257580295e-01 -4.4690988963e-02 -9.6109580540e-01 0.0000000000e+00
292 1.0000000000e+00 1.0000000000e+00 2.0000000000e+00 8.1433853611e-01 -4.9586687458e-01 -3.0161033024e-01 0.0000000000e+00
293 1.0000000000e+00 1.0000000000e+00 2.0000000000e+00 7.1254655765e-01 -4.7395148969e-01 5.1734648797e-01 0.0000000000e+00
294 1.0000000000e+00 1.0000000000e+00 2.0000000000e+00 9.2686297710e-01 2.3574202985e-01 -2.9214845036e-01 0.0000000000e+00
295 1.0000000000e+00 1.0000000000e+00 2.0000000000e+00 5.5420864893e-01 8.3050626579e-01 -5.5786341816e-02 0.0000000000e+00
296 1.0000000000e+00 1.0000000000e+00 2.0000000000e+00 6.4409607720e-01 7.5867564390e-01 -9.7731830486e-02 0.0000000000e+00
297 1.0000000000e+00 1.0000000000e+00 2.0000000000e+00 8.7211099533e-01 -4.8879002880e-01 -2.2510432356e-02 0.0000000000e+00
298 1.0000000000e+00 1.0000000000e+00 2.0000000000e+00 9.0008641378e-01 3.5387178419e-01 -2.5420308433e-01 0.0000000000e+00
299 1.0000000000e+00 1.0000000000e+00 2.0000000000e+00 9.9263649182e-01 1.0150579394e-01 -6.6101201948e-02 0.0000000000e+00
300 1.0000000000e+00 1.0000000000e+00 2.0000000000e+00 9.1096164039e-01 3.0042930971e-01 2.8265017179e-01 -0.0000000000e+00
301 1.0000000000e+00 1.0000000000e+00 2.0000000000e+00 6.0148401446e-01 2.9291159044e-01 7.4324947396e-01 -0.0000000000e+00
302 1.0000000000e+00 1.0000000000e+00 2.0000000000e+00 6.8553844514e-01 -6.3594551757e-01 -3.5441548911e-01 0.0000000000e+00
303 1.0000000000e+00 1.0000000000e+00 2.0000000000e+00 9.6005806346e-01 2.7664208147e-01 4.1924617490e-02 -0.0000000000e+00
304 1.0000000000e+00 1.0000000000e+00 2.0000000000e+00 8.8724801892e-01 -1.1418435380e-01 -4.4693722856e-01 0.0000000000e+00
305 1.0000000000e+00 1.0000000000e+00 2.0000000000e+00 9.3976255466e-01 1.9169868262e-01 2.8301582276e-01 -0.0000000000e+00
306 1.0000000000e+00 1.0000000000e+00 2.0000000000e+00 7.5360993745e-01 3.3892567753e-01 -5.6320639848e-01 0.0000000000e+00
307 1.0000000000e+00 1.0000000000e+00 2.0000000000e+00 7.1589427222e-01 -6.9398062278e-01 7.6722136349e-02 0.0000000000e+00
308 1.0000000000e+00 1.0000000000e+00 2.0000000000e+00 9.5781984161e-01 -1.5888673541e-01 2.3944969480e-01 0.0000000000e+00
309 1.0000000000e+00 1.0000000000e+00 2.0000000000e+00 1.9458849904e-01 -8.7178409190e-01 4.4958626887e-01 0.0000000000e+00
310 1.0000000000e+00 1.0000000000e+00 2.0000000000e+00 3.8224353555e-01 -3.9374662242e-01 8.3597456711e-01 0.0000000000e+00
311 1.0000000000e+00 1.0000000000e+00 2.0000000000e+00 8.2168747175e-01 -5.4849761265e-01 -1.5485498922e-01 0.0000000000e+00
312 1.0000000000e+00 1.0000000000e+00 2.0000000000e+00 2.1515179151e-01 9.2784264622e-01 3.0466002440e-01 -0.0000000000e+00
313 1.0000000000e+00 1.0000000000e+00 2.0000000000e+00 7.9387147558e-01 -3.9374647612e-01 -4.6339161927e-01 0.0000000000e+00
314 1.0000000000e+00 1.0000000000e+00 2.0000000000e+00 8.9561776483e-01 4.0393622727e-01 1.8629101864e-01 -0.0000000000e+00
315 1.0000000000e+00 1.0000000000e+00 2.0000000000e+00 4.1951823191e-01 8.3493263025e-01 -3.5621897203e-01 0.0000000000e+00
316 1.0000000000e+00 1.0000000000e+00 2.0000000000e+00 7.3407279510e-01 5.9030447337e-01 -3.3567508130e-01 0.0000000000e+00
317 1.0000000000e+00 1.0000000000e+00 2.0000000000e+00 3.4477472214e-01 -7.9891665694e-01 4.9281088284e-01 0.0000000000e+00
318 1.0000000000e+00 1.0000000000e+00 2.0000000000e+00 8.2548903545e-01 -9.5972236048e-02 5.5619886934e-01 0.0000000000e+00
319 1.0000000000e+00 1.0000000000e+00 2.0000000000e+00 8.7766216101e-01 -4.5441141159e-01 -1.5237913291e-01 0.0000000000e+00
320 1.0000000000e+00 1.0000000000e+00 2.0000000000e+00 8.8735584078e-01 3.7907502257e-01 2.6249140766e-01 -0.0000000000e+00
321 1.0000000000e+00 1.0000000000e+00 2.0000000000e+00 4.5101149664e-01 6.0180470057e-01 6.5910525128e-01 -0.0000000000e+00
322 1.0000000000e+00 1.0000000000e+00 2.0000000000e+00 1.8651605436e-01 6.5172547389e-01 7.3516370160e-01 -0.0000000000e+00
323 1.0000000000e+00 1.0000000000e+00 2.0000000000e+00 9.0636130418e-01 3.1316015618e-01 2.8361929212e-01 -0.0000000000e+00
324 1.0000000000e+00 1.0000000000e+00 2.0000000000e+00 8.5380520332e-01 -1.1679207560e-01 5.0732266445e-01 0.0000000000e+00
325 1.0000000000e+00 1.0000000000e+00 2.0000000000e+00 5.8458624348e-01 7.4419334880e-01 3.2316432900e-01 -0.0000000000e+00
326 1.0000000000e+00 1.0000000000e+00 2.0000000000e+00 6.6830915116e-01 -1.4261031490e-01 7.3008573233e-01 0.0000000000e+00
327 1.0000000000e+00 1.0000000000e+00 2.0000000000e+00 8.7874323950e-01 -4.6231727508e-01 -1.1862991271e-01 0.0000000000e+00
328 1.0000000000e+00 1.0000000000e+00 2.0000000000e+00 6.9668154566e-01 -5.7286641478e-01 4.3180886368e-01 0.0000000000e+00
329 1.0000000000e+00 1.0000000000e+00 2.0000000000e+00 9.8005957869e-01 1.9790361350e-01 1.7815217647e-02 -0.0000000000e+00
330 1.0000000000e+00 1.0000000000e+00 2.0000000000e+00 7.0857907858e-01 -1.7417908736e-01 6.8379626712e-01 0.0000000000e+00
331 1.0000000000e+00 1.0000000000e+00 2.0000000000e+00 6.8563830815e-01 1.6161116375e-01 7.0977598026e-01 -0.0000000000e+00
332 1.0000000000e+00 1.0000000000e+00 2.0000000000e+00 6.0058284979e-01 7.9914939794e-02 -7.9555882431e-01 0.0000000000e+00
333 1.0000000000e+00 1.0000000000e+00 2.0000000000e+00 2.8289324947e-01 -6.1435423639e-01 7.3657333758e-01 0.0000000000e+00
334 1.0000000000e+00 1.0000000000e+00 2.0000000000e+00 6.9772737728e-01 -7.0459539832e-01 -1.2931292144e-01 0.0000000000e+00
335 1.0000000000e+00 1.0000000000e+00 2.0000000000e+00 4.7332622683e-01 -7.6226032243e-01 4.4149913233e-01 0.0000000000e+00
336 1.0000000000e+00 1.0000000000e+00 2.0000000000e+00 8.3150800060e-01 5.3932407389e-01 1.3313146980e-01 -0.0000000000e+00
337 1.0000000000e+00 1.0000000000e+00 2.0000000000e+00 6.3663902103e-01 -2.9142157487e-01 7.1397774657e-01 0.0000000000e+00
338 1.0000000000e+00 1.0000000000e+00 2.0000000000e+00 5.0304320105e-01 5.4025610436e-01 6.7458941555e-01 -0.0000000000e+00
339 1.0000000000e+00 1.0000000000e+00 2.0000000000e+00 9.0986183559e-01 -4.1404736994e-01 2.6762204458e-02 0.0000000000e+00
340 1.0000000000e+00 1.0000000000e+00 2.0000000000e+00 5.0421642749e-01 -6.8508193700e-01 5.2576471340e-01 0.0000000000e+00
341 1.0000000000e+00 1.0000000000e+00 2.0000000000e+00 8.2293835105e-03 7.7858974981e-01 -6.2747930542e-01 0.0000000000e+00
342 1.0000000000e+00 1.0000000000e+00 2.0000000000e+00 4.0358741624e-01 -4.0672663584e-01 8.1956734998e-01 0.0000000000e+00
343 1.0000000000e+00 1.0000000000e+00 2.0000000000e+00 2.9167610469e-01 4.8658835789e-01 -8.2350277469e-01 0.0000000000e+00
344 1.0000000000e+00 1.0000000000e+00 2.0000000000e+00 5.1607349720e-01 8.4335096410e-01 1.4975746006e-01 -0.0000000000e+00
345 1.0000000000e+00 1.0000000000e+00 2.0000000000e+00 6.1973509145e-01 -7.7688244689e-01 1.1127479564e-01 0.0000000000e+00
346 1.0000000000e+00 1.0000000000e+00 2.0000000000e+00 7.6327773579e-01 -6.4590478225e-01 -1.4632509158e-02 0.0000000000e+00
347 1.0000000000e+00 1.0000000000e+00 2.0000000000e+00 8.3162282518e-01 -4.1189726589e-01 3.7248371641e-01 0.0000000000e+00
348 1.0000000000e+00 1.0000000000e+00 2.0000000000e+00 9.1178970341e-01 3.6925893341e-01 -1.7968688558e-01 0.0000000000e+00
349 1.0000000000e+00 1.0000000000e+00 2.0000000000e+00 8.0562141706e-01 9.3304197199e-02 5.8503714340e-01 -0.0000000000e+00
350 1.0000000000e+00 1.0000000000e+00 2.0000000000e+00 6.4074446794e-01 4.3898767563e-01 6.2987010363e-01 -0.0000000000e+00
351 1.0000000000e+00 1.0000000000e+00 2.0000000000e+00 3.1642844840e-01 -8.8352151212e-01 -3.4534442904e-01 0.0000000000e+00
352 1.0000000000e+00 1.0000000000e+00 2.0000000000e+00 8.7785826188e-01 3.4995310733e-01 3.2695212909e-01 -0.0000000000e+00
353 1.0000000000e+00 1.0000000000e+00 2.0000000000e+00 8.3089127500e-01 -2.6423312134e-01 -4.8969434008e-01 0.0000000000e+00
354 1.0000000000e+00 1.0000000000e+00 2.0000000000e+00 3.7891444628e-01 -8.8815929783e-01 -2.5999404625e-01 0.0000000000e+00
355 1.0000000000e+00 1.0000000000e+00 2.0000000000e+00 9.1868092719e-01 3.0023582221e-01 -2.5667840792e-01 0.0000000000e+00
356 1.0000000000e+00 1.0000000000e+00 2.0000000000e+00 9.1670891013e-01 -1.5491611683e-01 -3.6830119580e-01 0.0000000000e+00
357 1.0000000000e+00 1.0000000000e+00 2.0000000000e+00 9.2099597626e-01 -3.7115059089e-01 -1.1837926589e-01 0.0000000000e+00
358 1.0000000000e+00 1.0000000000e+00 2.0000000000e+00 4.0949481860e-01 5.8433938139e-01 7.0061507328e-01 -0.0000000000e+00
359 1.0000000000e+00 1.0000000000e+00 2.0000000000e+00 8.4966260247e-01 6.3250550042e-02 5.2351965568e-01 -0.0000000000e+00
360 1.0000000000e+00 1.0000000000e+00 2.0000000000e+00 2.8004436433e-01 -1.3939377502e-01 9.4981289183e-01 0.0000000000e+00
361 1.0000000000e+00 1.0000000000e+00 2.0000000000e+00 4.9522376076e-01 -3.7242279386e-01 -7.8489151441e-01 0.0000000000e+00
362 1.0000000000e+00 1.0000000000e+00 2.0000000000e+00 5.8791677751e-01 7.7703633530e-01 -2.2487417892e-01 0.0000000000e+00
363 1.0000000000e+00 1.0000000000e+00 2.0000000000e+00 5.3236537374e-01 8.4523980963e-01 4.6441070842e-02 -0.0000000000e+00
364 1.0000000000e+00 1.0000000000e+00 2.0000000000e+00 8.2315827477e-01 5.0420033600e-01 2.6113689102e-01 -0.0000000000e+00
365 1.0000000000e+00 1.0000000000e+00 2.0000000000e+00 4.9737519495e-01 3.5699364758e-01 -7.9067910750e-01 0.0000000000e+00
366 1.0000000000e+00 1.0000000000e+00 2.0000000000e+00 4.7097001818e-01 5.2092812496e-01 -7.1191371008e-01 0.0000000000e+00
367 1.0000000000e+00 1.0000000000e+00 2.0000000000e+00 9.4034871983e-01 3.3987146690e-01 -1.5220745662e-02 0.0000000000e+00
368 1.0000000000e+00 1.0000000000e+00 2.0000000000e+00 4.6703430789e-01 -7.2439129271e-01 5.0708599892e-01 0.0000000000e+00
369 1.0000000000e+00 1.0000000000e+00 2.0000000000e+00 8.8041950788e-01 -3.2825956813e-01 -3.4220921390e-01 0.0000000000e+00
370 1.0000000000e+00 1.0000000000e+00 2.0000000000e+00 2.9669975371e-01 -9.5474444161e-01 2.0792002288e-02 0.0000000000e+00
371 1.0000000000e+00 1.0000000000e+00 2.0000000000e+00 3.0200138006e-01 8.7663960911e-01 3.7456396274e-01 -0.0000000000e+00
372 1.0000000000e+00 1.0000000000e+00 2.0000000000e+00 3.6047490791e-01 7.9895573422e-01 -4.8138090481e-01 0.0000000000e+00
373 1.0000000000e+00 1.0000000000e+00 2.0000000000e+00 4.1044215840e-01 6.3482480121e-01 -6.5462562306e-01 0.0000000000e+00
374 1.0000000000e+00 1.0000000000e+00 2.0000000000e+00 6.2560942920e-01 -7.0573766946e-01 -3.3248636665e-01 0.0000000000e+00
375 1.0000000000e+00 1.0000000000e+00 2.0000000000e+00 6.0180750938e-01 6.7217469277e-01 4.3128749583e-01 -0.0000000000e+00
376 1.0000000000e+00 1.0000000000e+00 2.0000000000e+00 9.5862291331e-01 -2.4394103920e-01 -1.4674767278e-01 0.0000000000e+00
377 1.0000000000e+00 1.0000000000e+00 2.0000000000e+00 8.0145650692e-01 -3.3792034685e-01 -4.9343419692e-01 0.0000000000e+00
378 1.0000000000e+00 1.0000000000e+00 2.0000000000e+00 8.4566001911e-01 3.8522079985e-01 -3.6941043224e-01 0.0000000000e+00
379 1.0000000000e+00 1.0000000000e+00 2.0000000000e+00 8.6196981426e-01 2.3366899010e-01 -4.4989647962e-01 0.0000000000e+00
380 1.0000000000e+00 1.0000000000e+00 2.0000000000e+00 7.8324112696e-01 5.5173740425e-01 -2.8656443218e-01 0.0000000000e+00
381 1.0000000000e+00 1.0000000000e+00 2.0000000000e+00 7.3018354457e-01 1.0188319933e-01 -6.7561217051e-01 0.0000000000e+00
382 1.0000000000e+00 1.0000000000e+00 2.0000000000e+00 8.1673719122e-01 -5.5559500548e-01 1.5573872465e-01 0.0000000000e+00
383 1.0000000000e+00 1.0000000000e+00 2.0000000000e+00 9.6524040609e-01 -2.1327328082e-01 -1.5108099197e-01 0.0000000000e+00
384 1.0000000000e+00 1.0000000000e+00 2.0000000000e+00 9.1658688547e-01 -3.5592977881e-01 -1.8216057186e-01 0.0000000000e+00
385 1.0000000000e+00 1.0000000000e+00 2.0000000000e+00 5.1463484621e-01 1.9550127084e-01 -8.3482347126e-01 0.0000000000e+00
386 1.0000000000e+00 1.0000000000e+00 2.0000000000e+00 1.8118613350e-01 -9.8045803021e-01 7.6639650526e-02 0.0000000000e+00
387 1.0000000000e+00 1.0000000000e+00 2.0000000000e+00 4.6343658981e-01 -8.0933195365e-01 -3.6084389425e-01 0.0000000000e+00
388 1.0000000000e+00 1.0000000000e+00 2.0000000000e+00 7.2480061553e-01 6.4581937834e-01 2.3996124328e-01 -0.0000000000e+00
389 1.0000000000e+00 1.0000000000e+00 2.0000000000e+00 8.1910070342e-01 -1.6868177272e-01 5.4828869878e-01 0.0000000000e+00
390 1.0000000000e+00 1.0000000000e+00 2.0000000000e+00 8.2048486389e-01 -3.6498915007e-01 -4.3998580484e-01 0.0000000000e+00
391 1.0000000000e+00 1.0000000000e+00 2.0000000000e+00 7.7776041395e-01 6.2340131440e-01 -8.0371261612e-02 0.0000000000e+00
392 1.0000000000e+00 1.0000000000e+00 2.0000000000e+00 8.9294152155e-01 -4.0915445285e-01 1.8774470115e-01 0.0000000000e+00
393 1.0000000000e+00 1.0000000000e+00 2.0000000000e+00 3.0629117876e-01 5.1119424663e-01 8.0303558827e-01 -0.0000000000e+00
394 1.0000000000e+00 1.0000000000e+00 2.0000000000e+00 7.2634147249e-01 -3.8139308969e-01 -5.7181061242e-01 0.0000000000e+00
395 1.0000000000e+00 1.0000000000e+00 2.0000000000e+00 5.9135954916e-01 -7.9593532090e-01 -1.2954091466e-01 0.0000000000e+00
396 1.0000000000e+00 1.0000000000e+00 2.0000000000e+00 9.9257463498e-01 -9.4277123015e-02 7.6859729797e-02 0.0000000000e+00
397 1.0000000000e+00 1.0000000000e+00 2.0000000000e+00 3.2500085317e-01 -8.9937153097e-01 2.9241288399e-01 0.0000000000e+00
398 1.0000000000e+00 1.0000000000e+00 2.0000000000e+00 8.8744177212e-01 -2.1451587140e-01 -4.0795838270e-01 0.0000000000e+00
399 1.0000000000e+00 1.0000000000e+00 2.0000000000e+00 3.8659647516e-01 2.7276377533e-02 -9.2184552102e-01 0.0000000000e+00
400 1.0000000000e+00 1.0000000000e+00 2.0000000000e+00 1.8644437452e-01 -5.7907207384e-01 -7.9367123452e-01 0.0000000000e+00
401 1.0000000000e+00 1.0000000000e+00 2.0000000000e+00 7.3056065517e-01 2.0683405319e-01 6.5076939353e-01 -0.0000000000e+00
402 1.0000000000e+00 1.0000000000e+00 2.0000000000e+00 4.0895584199e-01 -6.4716900940e-01 -6.4337189289e-01 0.0000000000e+00
403 1.0000000000e+00 1.0000000000e+00 2.0000000000e+00 6.6856884597e-01 6.5187270703e-01 3.5787940989e-01 -0.0000000000e+00
404 1.0000000000e+00 1.0000000000e+00 2.0000000000e+00 9.8030742998e-01 1.5617011613e-01 1.2086454220e-01 -0.0000000000e+00
405 1.0000000000e+00 1.0000000000e+00 2.0000000000e+00 8.0070203521e-01 1.6067575419e-01 5.7711311961e-01 -0.0000000000e+00
406 1.0000000000e+00 1.0000000000e+00 2.0000000000e+00 5.8609485081e-01 4.3149410358e-01 6.8578835251e-01 -0.0000000000e+00
407 1.0000000000e+00 1.0000000000e+00 2.0000000000e+00 5.4956012839e-01 -7.8137063748e-01 2.9570862715e-01 0.0000000000e+00
408 1.0000000000e+00 1.0000000000e+00 2.0000000000e+00 6.8809712977e-01 1.3803895365e-01 7.1236759280e-01 -0.0000000000e+00
409 1.0000000000e+00 1.0000000000e+00 2.0000000000e+00 5.5215347376e-01 7.0227534514e-01 4.4937276399e-01 -0.0000000000e+00
410 1.0000000000e+00 1.0000000000e+00 2.0000000000e+00 6.5497611303e-01 -3.6453559743e-01 6.6190640544e-01 0.0000000000e+00
411 1.0000000000e+00 1.0000000000e+00 2.0000000000e+00 7.1375452061e-01 -6.7052011269e-01 -2.0237900776e-01 0.0000000000e+00
412 1.0000000000e+00 1.0000000000e+00 2.0000000000e+00 7.9185446146e-01 -5.1670271558e-01 -3.2555309179e-01 0.0000000000e+00
413 1.0000000000e+00 1.0000000000e+00 2.0000000000e+00 9.7019135685e-01 2.1244124693e-01 -1.1660809446e-01 0.0000000000e+00
414 1.0000000000e+00 1.0000000000e+00 2.0000000000e+00 8.5581701799e-01 -3.6364075143e-01 3.6788943395e-01 0.0000000000e+00
415 1.0000000000e+00 1.0000000000e+00 2.0000000000e+00 8.2589953130e-01 2.2093737759e-01 -5.1872597716e-01 0.0000000000e+00
416 1.0000000000e+00 1.0000000000e+00 2.0000000000e+00 6.5817674836e-01 7.5165833986e-01 4.2580606307e-02 -0.0000000000e+00
417 1.0000000000e+00 1.0000000000e+00 2.0000000000e+00 9.3075700198e-01 -3.1474455727e-01 -1.8608403189e-01 0.0000000000e+00
418 1.0000000000e+00 1.0000000000e+00 2.0000000000e+00 6.9983346113e-01 -1.4828514909e-01 -6.9874504738e-01 0.0000000000e+00
419 1.0000000000e+00 1.0000000000e+00 2.0000000000e+00 9.4370346173e-01 3.0493843505e-01 1.2820423999e-01 -0.0000000000e+00
420 1.0000000000e+00 1.0000000000e+00 2.0000000000e+00 7.0443202953e-01 7.0817591717e-01 4.7564546754e-02 -0.0000000000e+00
421 1.0000000000e+00 1.0000000000e+00 2.0000000000e+00 6.6507058791e-01 6.2468034279e-01 -4.0921337030e-01 0.0000000000e+00
422 1.0000000000e+00 1.0000000000e+00 2.0000000000e+00 8.6519674815e-01 4.9543732447e-01 7.7307467316e-02 -0.0000000000e+00
423 1.0000000000e+00 1.0000000000e+00 2.0000000000e+00 3.8895412286e-01 8.0572717768e-01 4.4667483190e-01 -0.0000000000e+00
424 1.0000000000e+00 1.0000000000e+00 2.0000000000e+00 5.7845237495e-01 -7.3342240124e-01 -3.5704962018e-01 0.0000000000e+00
425 1.0000000000e+00 1.0000000000e+00 2.0000000000e+00 9.2204579313e-01 -8.8449215446e-02 3.7683987537e-01 0.0000000000e+00
426 1.0000000000e+00 1.0000000000e+00 2.0000000000e+00 4.9765147492e-01 -8.3931890614e-01 -2.1883048991e-01 0.0000000000e+00
427 1.0000000000e+00 1.0000000000e+00 2.0000000000e+00 5.1300969877e-01 3.2774571720e-01 7.9334972983e-01 -0.0000000000e+00
428 1.0000000000e+00 1.0000000000e+00 2.0000000000e+00 9.6636982798e-01 -1.9271760879e-01 -1.7026238234e-01 0.0000000000e+00
429 1.0000000000e+00 1.0000000000e+00 2.0000000000e+00 7.7465794676e-01 -1.5731694152e-01 -6.1250015954e-01 0.0000000000e+00
430 1.0000000000e+00 1.0000000000e+00 2.0000000000e+00 6.9618106149e-01 -7.1637451870e-01 4.6254497920e-02 0.0000000000e+00
431 1.0000000000e+00 1.0000000000e+00 2.0000000000e+00 9.6391500543e-01 -1.4824746753e-01 -2.2111207717e-01 0.0000000000e+00
432 1.0000000000e+00 1.0000000000e+00 2.0000000000e+00 8.6883966904e-01 -4.9462072220e-01 2.1632629885e-02 0.0000000000e+00
433 1.0000000000e+00 1.0000000000e+00 2.0000000000e+00 9.4177167974e-01 -1.1259625891e-01 -3.1684094705e-01 0.0000000000e+00
434 1.0000000000e+00 1.0000000000e+00 2.0000000000e+00 4.1487171067e-01 -3.0906461364e-02 9.0935485611e-01 0.0000000000e+00
435 1.0000000000e+00 1.0000000000e+00 2.0000000000e+00 8.8056774627e-01 1.5418850050e-01 -4.4813653115e-01 0.0000000000e+00
436 1.0000000000e+00 1.0000000000e+00 2.0000000000e+00 5.4157041930e-01 4.7568571072e-01 -6.9312667353e-01 0.0000000000e+00
437 1.0000000000e+00 1.0000000000e+00 2.0000000000e+00 2.1172996702e-01 3.5763883957e-01 9.0954102793e-01 -0.0000000000e+00
438 1.0000000000e+00 1.0000000000e+00 2.0000000000e+00 5.0344380999e-01 7.4809465469e-01 4.3231784349e-01 -0.0000000000e+00
439 1.0000000000e+00 1.0000000000e+00 2.0000000000e+00 8.7851838440e-01 -2.6130563841e-01 3.9990600346e-01 0.0000000000e+00
440 1.0000000000e+00 1.0000000000e+00 2.0000000000e+00 2.0740140101e-01 -8.6630695433e-01 4.5441932149e-01 0.0000000000e+00
441 1.0000000000e+00 1.0000000000e+00 2.0000000000e+00 8.2226290052e-01 -1.6072303020e-01 5.4594123310e-01 0.0000000000e+00
442 1.0000000000e+00 1.0000000000e+00 2.0000000000e+00 3.2144567304e-01 8.2890374893e-01 -4.5781137415e-01 0.0000000000e+00
443 1.0000000000e+00 1.0000000000e+00 2.0000000000e+00 9.7149323936e-01 1.2282579681e-01 -2.0276762440e-01 0.0000000000e+00
444 1.0000000000e+00 1.0000000000e+00 2.0000000000e+00 7.4997324285e-01 9.6286758454e-02 -6.5442264261e-01 0.0000000000e+00
445 1.0000000000e+00 1.0000000000e+00 2.0000000000e+00 3.8696230756e-01 6.1718591366e-01 6.8508519215e-01 -0.0000000000e+00
446 1.0000000000e+00 1.0000000000e+00 2.0000000000e+00 9.3234874025e-01 -6.9540511446e-02 -3.5480972904e-01 0.0000000000e+00
447 1.0000000000e+00 1.0000000000e+00 2.0000000000e+00 9.7088912340e-01 -1.6598883108e-01 1.7269052672e-01 0.0000000000e+00
448 1.0000000000e+00 1.0000000000e+00 2.0000000000e+00 5.3868612632e-01 4.0079837633e-01 7.4106539445e-01 -0.0000000000e+00
449 1.0000000000e+00 1.0000000000e+00 2.0000000000e+00 6.2126265612e-01 3.0341967622e-01 7.2247436784e-01 -0.0000000000e+00
450 1.0000000000e+00 1.0000000000e+00 2.0000000000e+00 8.1064596712e-01 3.1149547563e-01 4.9580609582e-01 -0.0000000000e+00
451 1.0000000000e+00 1.0000000000e+00 2.0000000000e+00 6.7871898680e-01 7.1555720255e-01 -1.6528286919e-01 0.0000000000e+00
452 1.0000000000e+00 1.0000000000e+00 2.0000000000e+00 9.0250380290e-01 2.3633914074e-01 3.6004263124e-01 -0.0000000000e+00
453 1.0000000000e+00 1.0000000000e+00 2.0000000000e+00 8.9152501078e-01 -4.5219260300e-01 -2.6551929353e-02 0.0000000000e+00
454 1.0000000000e+00 1.0000000000e+00 2.0000000000e+00 9.4156815481e-01 -3.0970161151e-01 1.3241722577e-01 0.0000000000e+00
455 1.0000000000e+00 1.0000000000e+00 2.0000000000e+00 8.6412552071e-01 -4.0536175161e-01 2.9827660784e-01 0.0000000000e+00
456 1.0000000000e+00 1.0000000000e+00 2.0000000000e+00 6.3286480174e-01 -6.6710655578e-01 3.9300252666e-01 0.0000000000e+00
457 1.0000000000e+00 1.0000000000e+00 2.0000000000e+00 9.5129924337e-01 5.5984568823e-02 3.0314266875e-01 -0.0000000000e+00
458 1.0000000000e+00 1.0000000000e+00 2.0000000000e+00 2.3260315227e-01 -8.6678691694e-01 -4.4110793937e-01 0.0000000000e+00
459 1.0000000000e+00 1.0000000000e+00 2.0000000000e+00 8.6456328803e-01 -4.9336476527e-01 -9.5506698052e-02 0.0000000000e+00
460 1.0000000000e+00 1.0000000000e+00 2.0000000000e+00 9.0777002333e-01 -3.7378465104e-01 1.9036443833e-01 0.0000000000e+00
461 1.0000000000e+00 1.0000000000e+00 2.0000000000e+00 9.8208969078e-01 1.4068810594e-01 -1.2532635843e-01 0.0000000000e+00
462 1.0000000000e+00 1.0000000000e+00 2.0000000000e+00 6.6685366552e-01 -7.4226306636e-01 -6.5967636769e-02 0.0000000000e+00
463 1.0000000000e+00 1.0000000000e+00 2.0000000000e+00 6.8948012427e-01 1.2743532092e-01 7.1300588862e-01 -0.0000000000e+00
464 1.0000000000e+00 1.0000000000e+00 2.0000000000e+00 9.8925134711e-01 1.2995458838e-01 6.7034149457e-02 -0.0000000000e+00
465 1.0000000000e+00 1.0000000000e+00 2.0000000000e+00 9.7836303859e-01 -1.9582731370e-02 2.0596669962e-01 0.0000000000e+00
466 1.0000000000e+00 1.0000000000e+00 2.0000000000e+00 9.5926440114e-01 2.1387321600e-02 2.8169911461e-01 -0.0000000000e+00
467 1.0000000000e+00 1.0000000000e+00 2.0000000000e+00 7.0772953627e-01 -3.4449596562e-01 6.1679934595e-01 0.0000000000e+00
468 1.0000000000e+00 1.0000000000e+00 2.0000000000e+00 8.0192886996e-01 3.7928844860e-01 4.6157378639e-01 -0.0000000000e+00
469 1.0000000000e+00 1.0000000000e+00 2.0000000000e+00 9.7312131665e-01 -2.1750024861e-01 -7.5687151795e-02 0.0000000000e+00
470 1.0000000000e+00 1.0000000000e+00 2.0000000000e+00 9.5232158059e-01 -2.2630658326e-01 2.0461900577e-01 0.0000000000e+00
471 1.0000000000e+00 1.0000000000e+00 2.0000000000e+00 2.6774156318e-01 -9.5576327864e-01 1.2178263645e-01 0.0000000000e+00
472 1.0000000000e+00 1.0000000000e+00 2.0000000000e+00 4.9048250754e-01 8.2988747516e-01 -2.6592045496e-01 0.0000000000e+00
473 1.0000000000e+00 1.0000000000e+00 2.0000000000e+00 9.8437567166e-01 -2.4635622841e-02 1.7434914149e-01 0.0000000000e+00
474 1.0000000000e+00 1.0000000000e+00 2.0000000000e+00 5.9430261998e-01 -7.8516886932e-01 -1.7410985769e-01 0.0000000000e+00
475 1.0000000000e+00 1.0000000000e+00 2.0000000000e+00 8.7644814597e-01 4.1409554196e-01 -2.4568990527e-01 0.0000000000e+00
476 1.0000000000e+00 1.0000000000e+00 2.0000000000e+00 9.5704152122e-01 -2.7169646544e-01 1.0125491258e-01 0.0000000000e+00
477 1.0000000000e+00 1.0000000000e+00 2.0000000000e+00 4.2259258171e-01 5.8494059123e-01 6.9228607860e-01 -0.0000000000e+00
478 1.0000000000e+00 1.0000000000e+00 2.0000000000e+00 4.1098632809e-01 -7.7360633994e-01 -4.8231055237e-01 0.0000000000e+00
479 1.0000000000e+00 1.0000000000e+00 2.0000000000e+00 9.4267272179e-02 3.1613140812e-01 9.4402045221e-01 -0.0000000000e+00
480 1.0000000000e+00 1.0000000000e+00 2.0000000000e+00 9.7727070586e-01 -2.0994082525e-02 2.1095311319e-01 0.0000000000e+00
481 1.0000000000e+00 1.0000000000e+00 2.0000000000e+00 3.8128613553e-01 -1.0010606272e-01 -9.1902103298e-01 0.0000000000e+00
482 1.0000000000e+00 1.0000000000e+00 2.0000000000e+00 6.1904792438e-01 -7.6181191885e-01 1.9084618840e-01 0.0000000000e+00
483 1.0000000000e+00 1.0000000000e+00 2.0000000000e+00 7.6219119848e-01 -2.6151926029e-01 5.9217586362e-01 0.0000000000e+00
484 1.0000000000e+00 1.0000000000e+00 2.0000000000e+00 8.1183751434e-01 -5.8306467674e-01 -3.0910079904e-02 0.0000000000e+00
485 1.0000000000e+00 1.0000000000e+00 2.0000000000e+00 8.3430371353e-01 4.1218716049e-01 -3.6611345007e-01 0.0000000000e+00
486 1.0000000000e+00 1.0000000000e+00 2.0000000000e+00 9.3146114402e-01 -5.6088952478e-02 3.5949153896e-01 0.0000000000e+00
487 1.0000000000e+00 1.0000000000e+00 2.0000000000e+00 1.9339853954e-01 6.1026218547e-01 -7.6822982882e-01 0.0000000000e+00
488 1.0000000000e+00 1.0000000000e+00 2.0000000000e+00 8.6773939475e-01 4.5886112127e-01 -1.9098380609e-01 0.0000000000e+00
489 1.0000000000e+00 1.0000000000e+00 2.0000000000e+00 9.9223781007e-01 -5.9337150746e-02 1.0928508958e-01 0.0000000000e+00
490 1.0000000000e+00 1.0000000000e+00 2.0000000000e+00 6.3875799083e-01 7.6700126349e-01 6.0805353016e-02 -0.0000000000e+00
491 1.0000000000e+00 1.0000000000e+00 2.0000000000e+00 9.1094676633e-01 -2.1556203396e-02 -4.1196033670e-01 0.0000000000e+00
492 1.0000000000e+00 1.0000000000e+00 2.0000000000e+00 8.6170316909e-01 1.1314926186e-01 4.9463612173e-01 -0.0000000000e+00
493 1.0000000000e+00 1.0000000000e+00 2.0000000000e+00 8.0262905181e-01 -5.2929074163e-01 -2.7502348266e-01 0.0000000000e+00
494 1.0000000000e+00 1.0000000000e+00 2.0000000000e+00 9.4884643906e-01 -1.4806974299e-01 -2.7886517583e-01 0.0000000000e+00
495 1.0000000000e+00 1.0000000000e+00 2.0000000000e+00 5.6110976916e-01 -8.1960402836e-01 -1.1578023859e-01 0.0000000000e+00
496 1.0000000000e+00 1.0000000000e+00 2.0000000000e+00 9.6458984114e-01 -1.9802934953e-01 -1.7421485325e-01 0.0000000000e+00
497 1.0000000000e+00 1.0000000000e+00 2.0000000000e+00 5.9810724113e-01 -7.8586333492e-01 1.5711953075e-01 0.0000000000e+00
498 1.0000000000e+00 1.0000000000e+00 2.0000000000e+00 5.4714351544e-01 -7.7536602188e-01 -3.1534347246e-01 0.0000000000e+00
499 1.0000000000e+00 1.0000000000e+00 2.0000000000e+00 8.2919036413e-01 -3.5415535719e-03 5.5895509429e-01 0.0000000000e+00
500 1.0000000000e+00 1.0000000000e+00 2.0000000000e+00 9.3629814516e-01 2.4063577792e-02 3.5038083224e-01 -0.0000000000e+00
501 1.0000000000e+00 1.0000000000e+00 2.0000000000e+00 4.1945644367e-01 9.4679346478e-02 9.0282451961e-01 -0.0000000000e+00
502 1.0000000000e+00 1.0000000000e+00 2.0000000000e+00 4.1452608331e-01 5.8909085126e-01 -6.9364262788e-01 0.0000000000e+00
503 1.0000000000e+00 1.0000000000e+00 2.0000000000e+00 5.4757960878e-01 -9.5305170677e-02 8.3130830412e-01 0.0000000000e+00
504 1.0000000000e+00 1.0000000000e+00 2.0000000000e+00 5.4574595507e-01 7.7086435700e-01 -3.2852624802e-01 0.0000000000e+00
505 1.0000000000e+00 1.0000000000e+00 2.0000000000e+00 1.5312181067e-01 -1.5679902670e-01 9.7568836025e-01 0.0000000000e+00
506 1.0000000000e+00 1.0000000000e+00 2.0000000000e+00 9.0363003980e-01 1.3137568153e-01 4.0766797945e-01 -0.0000000000e+00
507 1.0000000000e+00 1.0000000000e+00 2.0000000000e+00 5.2776038604e-01 -8.4866865915e-01 3.5078225602e-02 0.0000000000e+00
508 1.0000000000e+00 1.0000000000e+00 2.0000000000e+00 9.9200589179e-01 -5.8674439508e-02 1.1172117441e-01 0.0000000000e+00
509 1.0000000000e+00 1.0000000000e+00 2.0000000000e+00 7.0354676992e-01 5.3834958973e-01 -4.6389833129e-01 0.0000000000e+00
510 1.0000000000e+00 1.0000000000e+00 2.0000000000e+00 7.0899801619e-01 -3.3824091303e-01 -6.1880117792e-01 0.0000000000e+00
511 1.0000000000e+00 1.0000000000e+00 2.0000000000e+00 6.9312576424e-01 -3.9613630599e-01 -6.0220652772e-01 0.0000000000e+00
512 1.0000000000e+00 1.0000000000e+00 2.0000000000e+00 7.9165640553e-01 -4.6354233746e-01 -3.9800582529e-01 0.0000000000e+00
513 1.0000000000e+00 1.0000000000e+00 2.0000000000e+00 9.3825921813e-01 2.4876606512e-01 -2.4038528332e-01 0.0000000000e+00
514 1.0000000000e+00 1.0000000000e+00 2.0000000000e+00 4.4754512661e-01 6.4473498316e-01 6.1969360263e-01 -0.0000000000e+00
515 1.0000000000e+00 1.0000000000e+00 2.0000000000e+00 2.3016704659e-01 6.0856439940e-01 7.5938955908e-01 -0.0000000000e+00
516 1.0000000000e+00 1.0000000000e+00 2.0000000000e+00 9.8562191606e-01 3.6100181593e-02 1.6506427678e-01 -0.0000000000e+00
517 1.0000000000e+00 1.0000000000e+00 2.0000000000e+00 2.5557043238e-01 8.1729635237e-01 5.1644014803e-01 -0.0000000000e+00
518 1.0000000000e+00 1.0000000000e+00 2.0000000000e+00 5.3120488323e-01 6.1928548249e-01 5.7819275610e-01 -0.0000000000e+00
519 1.0000000000e+00 1.0000000000e+00 2.0000000000e+00 6.6458777798e-01 7.4719541912e-01 4.7001059595e-03 -0.0000000000e+00
520 1.0000000000e+00 1.0000000000e+00 2.0000000000e+00 9.3851550863e-01 3.1595098464e-01 -1.3915320822e-01 0.0000000000e+00
521 1.0000000000e+00 1.0000000000e+00 2.0000000000e+00 3.6477500291e-01 3.1952233550e-01 -8.7455398597e-01 0.0000000000e+00
522 1.0000000000e+00 1.0000000000e+00 2.0000000000e+00 8.6598085538e-01 2.7415471543e-01 4.1823002059e-01 -0.0000000000e+00
523 1.0000000000e+00 1.0000000000e+00 2.0000000000e+00 7.1331692299e-01 -3.8771254006e-01 5.8383041516e-01 0.0000000000e+00
524 1.0000000000e+00 1.0000000000e+00 2.0000000000e+00 7.1003419195e-01 -2.8988429613e-01 6.4173089462e-01 0.0000000000e+00
525 1.0000000000e+00 1.0000000000e+00 2.0000000000e+00 7.4707839556e-01 6.6181826430e-01 -6.2212988399e-02 0.0000000000e+00
526 1.0000000000e+00 1.0000000000e+00 2.0000000000e+00 9.9699609952e-01 -4.0092208089e-02 6.6267581733e-02 0.0000000000e+00
527 1.0000000000e+00 1.0000000000e+00 2.0000000000e+00 6.9468738375e-01 -4.7998309293e-01 5.3574776655e-01 0.0000000000e+00
528 1.0000000000e+00 1.0000000000e+00 2.0000000000e+00 9.6848307939e-01 1.8853658051e-01 -1.6277125899e-01 0.0000000000e+00
529 1.0000000000e+00 1.0000000000e+00 2.0000000000e+00 4.4760522230e-01 2.1224900233e-01 8.6867711262e-01 -0.0000000000e+00
530 1.0000000000e+00 1.0000000000e+00 2.0000000000e+00 5.6634225678e-01 -3.0972467171e-01 7.6375851938e-01 0.0000000000e+00
531 1.0000000000e+00 1.0000000000e+00 2.0000000000e+00 6.3881449190e-01 -6.3824761887e-01 4.2959983932e-01 0.0000000000e+00
532 1.0000000000e+00 1.0000000000e+00 2.0000000000e+00 5.8948825607e-01 6.5837241638e-01 -4.6802709035e-01 0.0000000000e+00
533 1.0000000000e+00 1.0000000000e+00 2.0000000000e+00 3.7066066354e-01 -3.7754939401e-01 8.4856769181e-01 0.0000000000e+00
534 1.0000000000e+00 1.0000000000e+00 2.0000000000e+00 7.1697830376e-01 6.5142810316e-01 -2.4816030777e-01 0.0000000000e+00
535 1.0000000000e+00 1.0000000000e+00 2.0000000000e+00 9.7939349583e-01 -1.9685967113e-01 4.5107097087e-02 0.0000000000e+00
536 1.0000000000e+00 1.0000000000e+00 2.0000000000e+00 5.5730209716e-01 -2.6520172262e-01 -7.8681790703e-01 0.0000000000e+00
537 1.0000000000e+00 1.0000000000e+00 2.0000000000e+00 9.4886792733e-01 -5.0720173936e-02 -3.1157201485e-01 0.0000000000e+00
538 1.0000000000e+00 1.0000000000e+00 2.0000000000e+00 5.1342057534e-01 6.6224184385e-01 -5.4574266196e-01 0.0000000000e+00
539 1.0000000000e+00 1.0000000000e+00 2.0000000000e+00 5.6402029246e-01 2.0602669747e-01 7.9964624030e-01 -0.0000000000e+00
540 1.0000000000e+00 1.0000000000e+00 2.0000000000e+00 9.1942412898e-01 3.9296775366e-01 1.5349776140e-02 -0.0000000000e+00
541 1.0000000000e+00 1.0000000000e+00 2.0000000000e+00 7.4642883015e-01 5.2032961439e-01 -4.1485068870e-01 0.0000000000e+00
542 1.0000000000e+00 1.0000000000e+00 2.0000000000e+00 4.0374634401e-01 -1.6598464196e-01 8.9968771712e-01 0.0000000000e+00
543 1.0000000000e+00 1.0000000000e+00 2.0000000000e+00 7.3012298751e-01 1.0127641504e-01 -6.7576882946e-01 0.0000000000e+00
544 1.0000000000e+00 1.0000000000e+00 2.0000000000e+00 7.9829246249e-01 1.6922264528e-01 5.7800764757e-01 -0.0000000000e+00
545 1.0000000000e+00 1.0000000000e+00 2.0000000000e+00 9.0419840521e-01 -1.9193977815e-02 -4.2668118687e-01 0.0000000000e+00
546 1.0000000000e+00 1.0000000000e+00 2.0000000000e+00 6.6737388548e-01 2.5072160968e-01 -7.0124943595e-01 0.0000000000e+00
547 1.0000000000e+00 1.0000000000e+00 2.0000000000e+00 6.8876865479e-01 6.9379735027e-01 2.1034014582e-01 -0.0000000000e+00
548 1.0000000000e+00 1.0000000000e+00 2.0000000000e+00 7.5072810397e-01 -6.3992329973e-01 1.6402891319e-01 0.0000000000e+00
549 1.0000000000e+00 1.0000000000e+00 2.0000000000e+00 7.7924003309e-01 4.3132456855e-01 -4.5469120005e-01 0.0000000000e+00
550 1.0000000000e+00 1.0000000000e+00 2.0000000000e+00 7.3329954518e-01 3.7004390013e-01 5.7038521108e-01 -0.0000000000e+00
551 1.0000000000e+00 1.0000000000e+00 2.0000000000e+00 9.2196079864e-01 1.4800661241e-01 -3.5788591541e-01 0.0000000000e+00
552 1.0000000000e+00 1.0000000000e+00 2.0000000000e+00 8.3872387720e-01 4.4667760880e-01 3.1148253820e-01 -0.0000000000e+00
553 1.0000000000e+00 1.0000000000e+00 2.0000000000e+00 4.8697932796e-01 -8.4040471303e-01 2.3784669950e-01 0.0000000000e+00
554 1.0000000000e+00 1.0000000000e+00 2.0000000000e+00 9.0180888388e-01 2.8165391693e-01 3.2773740713e-01 -0.0000000000e+00
555 1.0000000000e+00 1.0000000000e+00 2.0000000000e+00 9.7039921958e-01 -1.4955641428e-01 1.8962656350e-01 0.0000000000e+00
556 1.0000000000e+00 1.0000000000e+00 2.0000000000e+00 6.0340464745e-01 -5.2795408204e-01 5.9763477032e-01 0.0000000000e+00
557 1.0000000000e+00 1.0000000000e+00 2.0000000000e+00 7.6225618635e-01 6.1393124994e-01 2.0507054082e-01 -0.0000000000e+00
558 1.0000000000e+00 1.0000000000e+00 2.0000000000e+00 6.3789156651e-01 -7.0879703553e-01 3.0116625276e-01 0.0000000000e+00
559 1.0000000000e+00 1.0000000000e+00 2.0000000000e+00 4.2750960346e-01 -7.3992754579e-01 5.1936765969e-01 0.0000000000e+00
560 1.0000000000e+00 1.0000000000e+00 2.0000000000e+00 8.4726501820e-01 -3.9811427068e-01 -3.5163477704e-01 0.0000000000e+00
561 1.0000000000e+00 1.0000000000e+00 2.0000000000e+00 1.1460315430e-01 -2.7476625330e-03 9.9340755351e-01 0.0000000000e+00
562 1.0000000000e+00 1.0000000000e+00 2.0000000000e+00 7.1654276442e-01 1.6331417485e-01 6.7815554783e-01 -0.0000000000e+00
563 1.0000000000e+00 1.0000000000e+00 2.0000000000e+00 9.9161553851e-01 5.1039483445e-02 -1.1871644754e-01 0.0000000000e+00
564 1.0000000000e+00 1.0000000000e+00 2.0000000000e+00 4.8197251828e-01 6.7727130586e-01 5.5588314408e-01 -0.0000000000e+00
565 1.0000000000e+00 1.0000000000e+00 2.0000000000e+00 9.8844613169e-01 1.2010786810e-01 9.2457259157e-02 -0.0000000000e+00
566 1.0000000000e+00 1.0000000000e+00 2.0000000000e+00 7.8551888777e-01 -3.4406971929e-02 -6.1788043928e-01 0.0000000000e+00
567 1.0000000000e+00 1.0000000000e+00 2.0000000000e+00 9.4478789478e-01 -6.9232520883e-02 3.2028532893e-01 0.0000000000e+00
568 1.0000000000e+00 1.0000000000e+00 2.0000000000e+00 6.9699287623e-01 5.3576911012e-01 -4.7660506829e-01 0.0000000000e+00
569 1.0000000000e+00 1.0000000000e+00 2.0000000000e+00 6.7917625364e-01 -5.4362885222e-01 -4.9314023110e-01 0.0000000000e+00
570 1.0000000000e+00 1.0000000000e+00 2.0000000000e+00 9.3885398093e-01 -3.0956860719e-01 1.5073314143e-01 0.0000000000e+00
571 1.0000000000e+00 1.0000000000e+00 2.0000000000e+00 7.9313056826e-01 2.4769201407e-01 5.5641043112e-01 -0.0000000000e+00
572 1.0000000000e+00 1.0000000000e+00 2.0000000000e+00 7.3276169791e-01 -2.8244149075e-01 -6.1910184814e-01 0.0000000000e+00
573 1.0000000000e+00 1.0000000000e+00 2.0000000000e+00 2.8261788369e-01 9.0427831323e-01 3.2001228733e-01 -0.0000000000e+00
574 1.0000000000e+00 1.0000000000e+00 2.0000000000e+00 8.2814606355e-01 5.6048847362e-01 5.1738156461e-03 -0.0000000000e+00
575 1.0000000000e+00 1.0000000000e+00 2.0000000000e+00 4.0862772959e-01 -2.0153271469e-01 8.9017298516e-01 0.0000000000e+00
576 1.0000000000e+00 1.0000000000e+00 2.0000000000e+00 2.5975176999e-01 -9.1639640835e-01 3.0454333149e-01 0.0000000000e+00
577 1.0000000000e+00 1.0000000000e+00 2.0000000000e+00 9.1124331601e-01 3.9544368531e-01 1.1515168596e-01 -0.0000000000e+00
578 1.0000000000e+00 1.0000000000e+00 2.0000000000e+00 3.7407719554e-01 -6.2115004532e-01 -6.8865003665e-01 0.0000000000e+00
579 1.0000000000e+00 1.0000000000e+00 2.0000000000e+00 4.6520955974e-01 1.5279963183e-01 -8.7191303353e-01 0.0000000000e+00
580 1.0000000000e+00 1.0000000000e+00 2.0000000000e+00 7.1600517160e-01 6.9806970393e-01 -5.9399237025e-03 0.0000000000e+00
581 1.0000000000e+00 1.0000000000e+00 2.0000000000e+00 5.4586752910e-01 8.2302856699e-01 -1.5701152374e-01 0.0000000000e+00
582 1.0000000000e+00 1.0000000000e+00 2.0000000000e+00 6.8282761140e-01 2.3230080531e-01 -6.9266354672e-01 0.0000000000e+00
583 1.0000000000e+00 1.0000000000e+00 2.0000000000e+00 7.2544210061e-01 6.3383894304e-01 -2.6829452650e-01 0.0000000000e+00
584 1.0000000000e+00 1.0000000000e+00 2.0000000000e+00 9.7337646484e-01 1.1595071372e-01 -1.9772124238e-01 0.0000000000e+00
585 1.0000000000e+00 1.0000000000e+00 2.0000000000e+00 9.9674648400e-01 9.5469588920e-03 -8.0033131979e-02 0.0000000000e+00
586 1.0000000000e+00 1.0000000000e+00 2.0000000000e+00 9.6814108794e-01 -1.1582960244e-01 -2.2200526353e-01 0.0000000000e+00
587 1.0000000000e+00 1.0000000000e+00 2.0000000000e+00 7.8683472825e-01 -5.3975025228e-01 -2.9926706398e-01 0.0000000000e+00
588 1.0000000000e+00 1.0000000000e+00 2.0000000000e+00 3.9304458640e-01 3.7234525550e-01 -8.4075856452e-01 0.0000000000e+00
589 1.0000000000e+00 1.0000000000e+00 2.0000000000e+00 3.3527107094e-01 -9.4078967020e-01 -5.0080988701e-02 0.0000000000e+00
590 1.0000000000e+00 1.0000000000e+00 2.0000000000e+00 9.2069090666e-01 -2.9635483796e-01 -2.5397256625e-01 0.0000000000e+00
591 1.0000000000e+00 1.0000000000e+00 2.0000000000e+00 1.4257025798e-01 8.1070815154e-01 -5.6782569030e-01 0.0000000000e+00
592 1.0000000000e+00 1.0000000000e+00 2.0000000000e+00 2.9888441167e-01 -8.7132309587e-01 3.8918398100e-01 0.0000000000e+00
593 1.0000000000e+00 1.0000000000e+00 2.0000000000e+00 6.3803198806e-01 6.5674735336e-01 4.0199265673e-01 -0.0000000000e+00
594 1.0000000000e+00 1.0000000000e+00 2.0000000000e+00 3.6543288125e-01 -7.5780509213e-01 -5.4054625301e-01 0.0000000000e+00
595 1.0000000000e+00 1.0000000000e+00 2.0000000000e+00 7.7511195328e-01 -6.0110040787e-01 -1.9462723230e-01 0.0000000000e+00
596 1.0000000000e+00 1.0000000000e+00 2.0000000000e+00 9.3773663384e-01 -4.9690860876e-02 3.4377437935e-01 0.0000000000e+00
597 1.0000000000e+00 1.0000000000e+00 2.0000000000e+00 5.3556171833e-01 -2.9004773614e-01 7.9312417478e-01 0.0000000000e+00
598 1.0000000000e+00 1.0000000000e+00 2.0000000000e+00 9.7438368561e-01 6.5319184102e-02 -2.1519720584e-01 0.0000000000e+00
599 1.0000000000e+00 1.0000000000e+00 2.0000000000e+00 2.5304689058e-01 6.7824055462e-02 -9.6507365971e-01 0.0000000000e+00
600 1.0000000000e+00 1.0000000000e+00 2.0000000000e+00 2.6243180269e-01 7.4235497615e-01 6.1647273932e-01 -0.0000000000e+00
601 1.0000000000e+00 1.0000000000e+00 2.0000000000e+00 9.3867422786e-01 1.4266257004e-01 -3.1390776522e-01 0.0000000000e+00
602 1.0000000000e+00 1.0000000000e+00 2.0000000000e+00 3.5100056379e-01 -5.2652889250e-01 7.7431642730e-01 0.0000000000e+00
603 1.0000000000e+00 1.0000000000e+00 2.0000000000e+00 8.8283655993e-01 4.4482950819e-01 1.5075250281e-01 -0.0000000000e+00
604 1.0000000000e+00 1.0000000000e+00 2.0000000000e+00 2.4596637708e-01 4.3695943937e-01 -8.6519765932e-01 0.0000000000e+00
605 1.0000000000e+00 1.0000000000e+00 2.0000000000e+00 3.8975752454e-01 -3.6394559141e-01 8.4595075422e-01 0.0000000000e+00
606 1.0000000000e+00 1.0000000000e+00 2.0000000000e+00 4.1348563086e-01 -7.7635952693e-01 -4.7570528484e-01 0.0000000000e+00
607 1.0000000000e+00 1.0000000000e+00 2.0000000000e+00 4.0859731290e-01 9.0564546109e-01 1.1337784042e-01 -0.0000000000e+00
608 1.0000000000e+00 1.0000000000e+00 2.0000000000e+00 9.5736539047e-01 2.1177624995e-01 -1.9647475431e-01 0.0000000000e+00
609 1.0000000000e+00 1.0000000000e+00 2.0000000000e+00 6.6317699188e-01 -1.9757854566e-01 -7.2191342676e-01 0.0000000000e+00
610 1.0000000000e+00 1.0000000000e+00 2.0000000000e+00 4.7630978342e-01 -8.7132278934e-01 1.1800672433e-01 0.0000000000e+00
611 1.0000000000e+00 1.0000000000e+00 2.0000000000e+00 7.4393826481e-01 -5.1126636332e-01 -4.3030519853e-01 0.0000000000e+00
612 1.0000000000e+00 1.0000000000e+00 2.0000000000e+00 9.7912777093e-01 -2.0187926353e-01 -2.3528092883e-02 0.0000000000e+00
613 1.0000000000e+00 1.0000000000e+00 2.0000000000e+00 9.9861989406e-01 1.1907158002e-02 -5.1151996792e-02 0.0000000000e+00
614 1.0000000000e+00 1.0000000000e+00 2.0000000000e+00 6.5887331367e-01 -7.1084353758e-01 -2.4614512310e-01 0.0000000000e+00
615 1.0000000000e+00 1.0000000000e+00 2.0000000000e+00 8.8797182657e-01 -2.0141212678e-02 4.5945659944e-01 0.0000000000e+00
616 1.0000000000e+00 1.0000000000e+00 2.0000000000e+00 7.7101411053e-01 -6.3678270179e-01 6.7105940646e-03 0.0000000000e+00
617 1.0000000000e+00 1.0000000000e+00 2.0000000000e+00 7.1223965639e-01 -4.0756942144e-01 5.7149089106e-01 0.0000000000e+00
618 1.0000000000e+00 1.0000000000e+00 2.0000000000e+00 9.2771293781e-01 5.5008070868e-04 -3.7329398927e-01 0.0000000000e+00
619 1.0000000000e+00 1.0000000000e+00 2.0000000000e+00 8.6583755099e-01 4.9697623521e-01 5.7792360488e-02 -0.0000000000e+00
620 1.0000000000e+00 1.0000000000e+00 2.0000000000e+00 7.0086808659e-01 -6.8222414284e-01 2.0821657983e-01 0.0000000000e+00
621 1.0000000000e+00 1.0000000000e+00 2.0000000000e+00 9.4559051759e-02 9.5050796079e-01 -2.9596148772e-01 0.0000000000e+00
622 1.0000000000e+00 1.0000000000e+00 2.0000000000e+00 9.1085322802e-01 -2.3457625070e-01 3.3958854459e-01 0.0000000000e+00
623 1.0000000000e+00 1.0000000000e+00 2.0000000000e+00 6.6357015882e-01 7.3695082680e-01 1.2875606085e-01 -0.0000000000e+00
624 1.0000000000e+00 1.0000000000e+00 2.0000000000e+00 9.3486925999e-01 -3.5397794404e-01 2.6815701826e-02 0.0000000000e+00
625 1.0000000000e+00 1.0000000000e+00 2.0000000000e+00 8.7607282894e-01 -4.4550336404e-01 -1.8445365547e-01 0.0000000000e+00
626 1.0000000000e+00 1.0000000000e+00 2.0000000000e+00 9.7065788442e-01 -1.5125443645e-01 -1.8693679915e-01 0.0000000000e+00
627 1.0000000000e+00 1.0000000000e+00 2.0000000000e+00 7.8670790335e-01 5.4192833747e-01 2.9564227009e-01 -0.0000000000e+00
628 1.0000000000e+00 1.0000000000e+00 2.0000000000e+00 4.3392412298e-01 5.0701677443e-01 -7.4474414797e-01 0.0000000000e+00
629 1.0000000000e+00 1.0000000000e+00 2.0000000000e+00 4.0310603288e-01 -6.1098987337e-01 6.8131996954e-01 0.0000000000e+00
630 1.0000000000e+00 1.0000000000e+00 2.0000000000e+00 9.8395733409e-01 -1.3337079761e-01 -1.1849132896e-01 0.0000000000e+00
631 1.0000000000e+00 1.0000000000e+00 2.0000000000e+00 9.6991441237e-01 2.8016234726e-02 2.4182870644e-01 -0.0000000000e+00
632 1.0000000000e+00 1.0000000000e+00 2.0000000000e+00 2.9452185466e-01 7.1785852926e-01 6.3082169358e-01 -0.0000000000e+00
633 1.0000000000e+00 1.0000000000e+00 2.0000000000e+00 8.2293912531e-01 -5.6424449759e-01 -6.6327543025e-02 0.0000000000e+00
634 1.0000000000e+00 1.0000000000e+00 2.0000000000e+00 9.2806161843e-01 -2.6469043508e-01 -2.6199352277e-01 0.0000000000e+00
635 1.0000000000e+00 1.0000000000e+00 2.0000000000e+00 4.4734902885e-01 2.4654147192e-01 8.5970701347e-01 -0.0000000000e+00
636 1.0000000000e+00 1.0000000000e+00 2.0000000000e+00 4.0223759989e-01 -7.5106308533e-01 -5.2355434778e-01 0.0000000000e+00
637 1.0000000000e+00 1.0000000000e+00 2.0000000000e+00 5.7730122847e-01 7.5567677570e-01 -3.0931521509e-01 0.0000000000e+00
638 1.0000000000e+00 1.0000000000e+00 2.0000000000e+00 6.2296350819e-01 -3.7281905586e-01 6.8769355025e-01 0.0000000000e+00
639 1.0000000000e+00 1.0000000000e+00 2.0000000000e+00 8.2255386892e-01 -5.1582151273e-01 2.3944372977e-01 0.0000000000e+00
640 1.0000000000e+00 1.0000000000e+00 2.0000000000e+00 9.6635153956e-01 -1.1441588338e-01 -2.3037731578e-01 0.0000000000e+00
641 1.0000000000e+00 1.0000000000e+00 2.0000000000e+00 7.3474681488e-01 4.8506476995e-01 -4.7419330129e-01 0.0000000000e+00
642 1.0000000000e+00 1.0000000000e+00 2.0000000000e+00 7.4252687310e-01 -3.5026439787e-01 -5.7093668152e-01 0.0000000000e+00
643 1.0000000000e+00 1.0000000000e+00 2.0000000000e+00 6.9271056226e-01 3.5815580998e-02 7.2032584369e-01 -0.0000000000e+00
644 1.0000000000e+00 1.0000000000e+00 2.0000000000e+00 4.9241892986e-01 6.4506577153e-01 5.8430621074e-01 -0.0000000000e+00
645 1.0000000000e+00 1.0000000000e+00 2.0000000000e+00 6.5136942060e-01 3.9657560061e-01 6.4687376736e-01 -0.0000000000e+00
646 1.0000000000e+00 1.0000000000e+00 2.0000000000e+00 5.7181574658e-01 -1.3960218160e-01 -8.0841696102e-01 0.0000000000e+00
647 1.0000000000e+00 1.0000000000e+00 2.0000000000e+00 7.0177485148e-01 1.0434552260e-01 -7.0471559493e-01 0.0000000000e+00
648 1.0000000000e+00 1.0000000000e+00 2.0000000000e+00 9.2522713951e-01 1.2703428933e-01 3.5751507612e-01 -0.0000000000e+00
649 1.0000000000e+00 1.0000000000e+00 2.0000000000e+00 9.9486214930e-01 1.2838684306e-02 1.0042147222e-01 -0.0000000000e+00
650 1.0000000000e+00 1.0000000000e+00 2.0000000000e+00 9.0111450575e-01 -4.3095565811e-01 -4.7643134532e-02 0.0000000000e+00
651 1.0000000000e+00 1.0000000000e+00 2.0000000000e+00 8.6015423591e-01 1.9653727275e-01 -4.7064614188e-01 0.0000000000e+00
652 1.0000000000e+00 1.0000000000e+00 2.0000000000e+00 4.6690413468e-01 -5.5368108802e-01 6.8951996474e-01 0.0000000000e+00
653 1.0000000000e+00 1.0000000000e+00 2.0000000000e+00 7.4461988740e-01 6.3340347944e-01 -2.1057363443e-01 0.0000000000e+00
654 1.0000000000e+00 1.0000000000e+00 2.0000000000e+00 6.8114638163e-01 2.2201994266e-01 -6.9767238146e-01 0.0000000000e+00
655 1.0000000000e+00 1.0000000000e+00 2.0000000000e+00 8.2982200382e-01 5.4961987689e-01 9.6506128846e-02 -0.0000000000e+00
656 1.0000000000e+00 1.0000000000e+00 2.0000000000e+00 9.6561435077e-01 -1.6150025250e-01 -2.0373167165e-01 0.0000000000e+00
657 1.0000000000e+00 1.0000000000e+00 2.0000000000e+00 8.4589281662e-01 -3.9031829454e-01 -3.6347898391e-01 0.0000000000e+00
658 1.0000000000e+00 1.0000000000e+00 2.0000000000e+00 6.4254609114e-01 2.7435900798e-01 -7.1544507511e-01 0.0000000000e+00
659 1.0000000000e+00 1.0000000000e+00 2.0000000000e+00 5.9183917687e-01 -5.8139168735e-01 -5.5831003448e-01 0.0000000000e+00
660 1.0000000000e+00 1.0000000000e+00 2.0000000000e+00 4.4504154930e-01 -6.4085158358e-01 6.2549761568e-01 0.0000000000e+00
661 1.0000000000e+00 1.0000000000e+00 2.0000000000e+00 6.1419567590e-01 -2.8013429602e-01 7.3775907171e-01 0.0000000000e+00
662 1.0000000000e+00 1.0000000000e+00 2.0000000000e+00 3.4867084672e-01 3.3503680469e-01 8.7531650284e-01 -0.0000000000e+00
663 1.0000000000e+00 1.0000000000e+00 2.0000000000e+00 7.3059839611e-01 6.8271892562e-01 -1.0993279467e-02 0.0000000000e+00
664 1.0000000000e+00 1.0000000000e+00 2.0000000000e+00 6.7731880009e-01 -7.1733057221e-01 -1.6332817641e-01 0.0000000000e+00
665 1.0000000000e+00 1.0000000000e+00 2.0000000000e+00 3.3505621576e-01 8.4600783951e-01 4.1473855350e-01 -0.0000000000e+00
666 1.0000000000e+00 1.0000000000e+00 2.0000000000e+00 2.1926408949e-01 -6.4505840893e-01 7.3199925418e-01 0.0000000000e+00
667 1.0000000000e+00 1.0000000000e+00 2.0000000000e+00 9.5181633460e-01 -2.1421439034e-01 -2.1944899216e-01 0.0000000000e+00
668 1.0000000000e+00 1.0000000000e+00 2.0000000000e+00 9.7190204226e-01 2.3340577943e-01 3.0465757433e-02 -0.0000000000e+00
669 1.0000000000e+00 1.0000000000e+00 2.0000000000e+00 9.4382722538e-01 1.9162563558e-02 3.2988325934e-01 -0.0000000000e+00
670 1.0000000000e+00 1.0000000000e+00 2.0000000000e+00 5.5807327817e-01 -7.9506718297e-01 -2.3753397812e-01 0.0000000000e+00
671 1.0000000000e+00 1.0000000000e+00 2.0000000000e+00 6.2358795796e-01 6.9438238983e-01 3.5912554264e-01 -0.0000000000e+00
672 1.0000000000e+00 1.0000000000e+00 2.0000000000e+00 9.1106586911e-01 1.7341586477e-01 3.7401326177e-01 -0.0000000000e+00
673 1.0000000000e+00 1.0000000000e+00 2.0000000000e+00 9.1167268134e-01 3.4931807237e-01 2.1640195565e-01 -0.0000000000e+00
674 1.0000000000e+00 1.0000000000e+00 2.0000000000e+00 7.9361153888e-01 -5.8951827493e-01 -1.5049561083e-01 0.0000000000e+00
675 1.0000000000e+00 1.0000000000e+00 2.0000000000e+00 7.5075459012e-01 -1.5914695162e-01 -6.4112385169e-01 0.0000000000e+00
676 1.0000000000e+00 1.0000000000e+00 2.0000000000e+00 6.7157886520e-01 -2.4044380097e-01 -7.0083422176e-01 0.0000000000e+00
677 1.0000000000e+00 1.0000000000e+00 2.0000000000e+00 9.9341677111e-01 -4.4058618450e-02 1.0574477305e-01 0.0000000000e+00
678 1.0000000000e+00 1.0000000000e+00 2.0000000000e+00 8.7558860546e-01 3.1120784565e-01 -3.6945131044e-01 0.0000000000e+00
679 1.0000000000e+00 1.0000000000e+00 2.0000000000e+00 4.2950458261e-01 7.3138219746e-01 -5.2972246955e-01 0.0000000000e+00
680 1.0000000000e+00 1.0000000000e+00 2.0000000000e+00 7.0338459393e-01 -3.8979806281e-01 5.9439682305e-01 0.0000000000e+00
681 1.0000000000e+00 1.0000000000e+00 2.0000000000e+00 4.5453091308e-02 -3.4881102269e-01 -9.3609021304e-01 0.0000000000e+00
682 1.0000000000e+00 1.0000000000e+00 2.0000000000e+00 1.4612395959e-01 6.8682337122e-01 7.1198416077e-01 -0.0000000000e+00
683 1.0000000000e+00 1.0000000000e+00 2.0000000000e+00 2.2129884552e-01 5.8268729796e-01 -7.8198614679e-01 0.0000000000e+00
684 1.0000000000e+00 1.0000000000e+00 2.0000000000e+00 6.2093300744e-01 -5.8787983475e-01 5.1849734828e-01 0.0000000000e+00
685 1.0000000000e+00 1.0000000000e+00 2.0000000000e+00 9.5390439055e-01 2.9707227364e-01 -4.2596689157e-02 0.0000000000e+00
686 1.0000000000e+00 1.0000000000e+00 2.0000000000e+00 9.2011390549e-01 -3.8690951427e-01 -6.0757128698e-02 0.0000000000e+00
687 1.0000000000e+00 1.0000000000e+00 2.0000000000e+00 9.7673072217e-01 -5.4179593565e-02 -2.0751305501e-01 0.0000000000e+00
688 1.0000000000e+00 1.0000000000e+00 2.0000000000e+00 9.0409344799e-01 -4.7163160551e-02 -4.2472423239e-01 0.0000000000e+00
689 1.0000000000e+00 1.0000000000e+00 2.0000000000e+00 9.9257860581e-01 1.2087694140e-01 1.3284438978e-02 -0.0000000000e+00
690 1.0000000000e+00 1.0000000000e+00 2.0000000000e+00 3.7110638166e-01 -5.9986143321e-01 -7.0883447605e-01 0.0000000000e+00
691 1.0000000000e+00 1.0000000000e+00 2.0000000000e+00 2.0998262516e-01 -7.2803170168e-01 -6.5259262827e-01 0.0000000000e+00
692 1.0000000000e+00 1.0000000000e+00 2.0000000000e+00 3.0332331344e-01 -2.0623956331e-01 9.3030113944e-01 0.0000000000e+00
693 1.0000000000e+00 1.0000000000e+00 2.0000000000e+00 5.4818987571e-01 -8.1548857996e-01 -1.8565084466e-01 0.0000000000e+00
694 1.0000000000e+00 1.0000000000e+00 2.0000000000e+00 3.6372228091e-01 9.3089262043e-01 -3.3838315624e-02 0.0000000000e+00
695 1.0000000000e+00 1.0000000000e+00 2.0000000000e+00 6.7606092597e-01 -6.7302946876e-01 2.9995492754e-01 0.0000000000e+00
696 1.0000000000e+00 1.0000000000e+00 2.0000000000e+00 1.9758784531e-01 3.6295054689e-01 -9.1061844034e-01 0.0000000000e+00
697 1.0000000000e+00 1.0000000000e+00 2.0000000000e+00 5.9872866332e-01 -1.3281708006e-01 7.8986303304e-01 0.0000000000e+00
698 1.0000000000e+00 1.0000000000e+00 2.0000000000e+00 4.2514309991e-01 8.9267881895e-01 -1.4959234873e-01 0.0000000000e+00
699 1.0000000000e+00 1.0000000000e+00 2.0000000000e+00 3.6628925743e-01 6.0442059025e-01 -7.0746585075e-01 0.0000000000e+00
700 1.0000000000e+00 1.0000000000e+00 2.0000000000e+00 1.9414565122e-01 -1.4345315562e-01 -9.7042704942e-01 0.0000000000e+00
701 1.0000000000e+00 1.0000000000e+00 2.0000000000e+00 8.6855910137e-01 -2.8194602030e-01 4.0756782142e-01 0.0000000000e+00
702 1.0000000000e+00 1.0000000000e+00 2.0000000000e+00 2.9256929274e-01 2.7462350989e-01 -9.1596131838e-01 0.0000000000e+00
703 1.0000000000e+00 1.0000000000e+00 2.0000000000e+00 9.6300071127e-01 1.8776287165e-02 2.6884397173e-01 -0.0000000000e+00
704 1.0000000000e+00 1.0000000000e+00 2.0000000000e+00 9.6480940576e-01 2.6254040872e-01 1.4674615648e-02 -0.0000000000e+00
705 1.0000000000e+00 1.0000000000e+00 2.0000000000e+00 3.4253286735e-01 9.3543006488e-01 -8.7417552632e-02 0.0000000000e+00
706 1.0000000000e+00 1.0000000000e+00 2.0000000000e+00 9.6179281583e-01 -2.5225216488e-01 -1.0641158176e-01 0.0000000000e+00
707 1.0000000000e+00 1.0000000000e+00 2.0000000000e+00 9.6647345675e-01 -1.4350641838e-01 -2.1292009129e-01 0.0000000000e+00
708 1.0000000000e+00 1.0000000000e+00 2.0000000000e+00 6.7378383156e-01 3.3228137024e-01 -6.6000336311e-01 0.0000000000e+00
709 1.0000000000e+00 1.0000000000e+00 2.0000000000e+00 7.4246694671e-01 -6.4772142779e-01 1.7087944589e-01 0.0000000000e+00
710 1.0000000000e+00 1.0000000000e+00 2.0000000000e+00 9.5977416082e-01 4.8288861581e-02 2.7658949017e-01 -0.0000000000e+00
711 1.0000000000e+00 1.0000000000e+00 2.0000000000e+00 9.5749310631e-01 2.7319187318e-01 -9.2591315986e-02 0.0000000000e+00
712 1.0000000000e+00 1.0000000000e+00 2.0000000000e+00 8.1468239312e-01 -5.7983313839e-01 -9.2806233802e-03 0.0000000000e+00
713 1.0000000000e+00 1.0000000000e+00 2.0000000000e+00 7.4518722774e-01 6.1637984676e-01 2.5450320258e-01 -0.0000000000e+00
714 1.0000000000e+00 1.0000000000e+00 2.0000000000e+00 6.0825128280e-02 6.7716221373e-01 -7.3331551195e-01 0.0000000000e+00
715 1.0000000000e+00 1.0000000000e+00 2.0000000000e+00 1.5677918731e-01 -5.7074698698e-01 -8.0601995216e-01 0.0000000000e+00
716 1.0000000000e+00 1.0000000000e+00 2.0000000000e+00 9.9033204575e-01 -1.0425841920e-01 -9.1502028296e-02 0.0000000000e+00
717 1.0000000000e+00 1.0000000000e+00 2.0000000000e+00 5.3694315452e-01 7.8372571778e-01 -3.1219552864e-01 0.0000000000e+00
718 1.0000000000e+00 1.0000000000e+00 2.0000000000e+00 8.9333292392e-01 -3.0297342896e-01 3.3190870489e-01 0.0000000000e+00
719 1.0000000000e+00 1.0000000000e+00 2.0000000000e+00 5.1265063181e-01 7.5020064106e-01 -4.1759828527e-01 0.0000000000e+00
720 1.0000000000e+00 1.0000000000e+00 2.0000000000e+00 5.0270039208e-01 -8.4001087817e-01 2.0414220623e-01 0.0000000000e+00
721 1.0000000000e+00 1.0000000000e+00 2.0000000000e+00 5.4706896341e-01 8.3554581722e-01 -5.0781262356e-02 0.0000000000e+00
722 1.0000000000e+00 1.0000000000e+00 2.0000000000e+00 9.3494543509e-01 2.0883145515e-01 -2.8682129757e-01 0.0000000000e+00
723 1.0000000000e+00 1.0000000000e+00 2.0000000000e+00 9.5877892153e-01 -2.4215865189e-01 -1.4866797549e-01 0.0000000000e+00
724 1.0000000000e+00 1.0000000000e+00 2.0000000000e+00 8.9959850507e-01 -3.6783304453e-01 -2.3541746120e-01 0.0000000000e+00
725 1.0000000000e+00 1.0000000000e+00 2.0000000000e+00 8.7307834971e-01 3.6077071183e-01 -3.2799190348e-01 0.0000000000e+00
726 1.0000000000e+00 1.0000000000e+00 2.0000000000e+00 4.4865058513e-01 2.2462249572e-01 -8.6501872053e-01 0.0000000000e+00
727 1.0000000000e+00 1.0000000000e+00 2.0000000000e+00 2.1899264038e-01 -8.9240698591e-01 3.9452755918e-01 0.0000000000e+00
728 1.0000000000e+00 1.0000000000e+00 2.0000000000e+00 2.0713975686e-01 -9.6626069432e-01 -1.5307969080e-01 0.0000000000e+00
729 1.0000000000e+00 1.0000000000e+00 2.0000000000e+00 4.2638094162e-01 -6.8234540158e-01 5.9380472006e-01 0.0000000000e+00
730 1.0000000000e+00 1.0000000000e+00 2.0000000000e+00 9.4805723400e-01 1.4187902735e-01 2.8470655536e-01 -0.0000000000e+00
731 1.0000000000e+00 1.0000000000e+00 2.0000000000e+00 6.7904395542e-01 5.3365265290e-01 -5.0409736426e-01 0.0000000000e+00
732 1.0000000000e+00 1.0000000000e+00 2.0000000000e+00 2.4501773452e-01 -7.2810698514e-01 -6.4017695051e-01 0.0000000000e+00
733 1.0000000000e+00 1.0000000000e+00 2.0000000000e+00 2.6915891756e-01 5.7319693144e-01 7.7395009844e-01 -0.0000000000e+00
734 1.0000000000e+00 1.0000000000e+00 2.0000000000e+00 2.4368056408e-01 8.5134766931e-01 -4.6457176910e-01 0.0000000000e+00
735 1.0000000000e+00 1.0000000000e+00 2.0000000000e+00 4.3835416833e-01 -8.9779321309e-01 4.2578981262e-02 0.0000000000e+00
736 1.0000000000e+00 1.0000000000e+00 2.0000000000e+00 4.1361296191e-01 -3.0950819987e-01 -8.5622952060e-01 0.0000000000e+00
737 1.0000000000e+00 1.0000000000e+00 2.0000000000e+00 4.8010442101e-01 8.7572463555e-01 5.1050050136e-02 -0.0000000000e+00
738 1.0000000000e+00 1.0000000000e+00 2.0000000000e+00 9.3344942432e-01 -1.8659271748e-01 3.0635817276e-01 0.0000000000e+00
739 1.0000000000e+00 1.0000000000e+00 2.0000000000e+00 9.9931261995e-01 1.1139622107e-02 3.5358116917e-02 -0.0000000000e+00
740 1.0000000000e+00 1.0000000000e+00 2.0000000000e+00 9.6173734446e-01 9.1452568655e-02 -2.5825899393e-01 0.0000000000e+00
741 1.0000000000e+00 1.0000000000e+00 2.0000000000e+00 7.4201022651e-01 -4.1336024217e-01 -5.2778227892e-01 0.0000000000e+00
742 1.0000000000e+00 1.0000000000e+00 2.0000000000e+00 4.7699454154e-01 -8.7270088707e-01 1.0425626624e-01 0.0000000000e+00
743 1.0000000000e+00 1.0000000000e+00 2.0000000000e+00 9.2189635320e-01 -3.8492523497e-01 -4.4041769212e-02 0.0000000000e+00
744 1.0000000000e+00 1.0000000000e+00 2.0000000000e+00 8.9417034024e-01 -4.2253547284e-01 -1.4806477240e-01 0.0000000000e+00
745 1.0000000000e+00 1.0000000000e+00 2.0000000000e+00 8.2124464019e-01 1.5630807626e-01 -5.4874860023e-01 0.0000000000e+00
746 1.0000000000e+00 1.0000000000e+00 2.0000000000e+00 5.9588440078e-01 6.3609497737e-01 -4.9020909894e-01 0.0000000000e+00
747 1.0000000000e+00 1.0000000000e+00 2.0000000000e+00 6.4789196851e-01 5.2910619573e-01 -5.4798050219e-01 0.0000000000e+00
748 1.0000000000e+00 1.0000000000e+00 2.0000000000e+00 6.3385971357e-01 6.6071018012e-01 4.0209939243e-01 -0.0000000000e+00
749 1.0000000000e+00 1.0000000000e+00 2.0000000000e+00 8.4188542677e-01 4.6840545222e-01 -2.6800235170e-01 0.0000000000e+00
750 1.0000000000e+00 1.0000000000e+00 2.0000000000e+00 9.8679778105e-01 1.5427557567e-01 -4.9286773656e-02 0.0000000000e+00
751 1.0000000000e+00 1.0000000000e+00 2.0000000000e+00 8.6049170260e-01 5.0928658319e-01 1.3461275615e-02 -0.0000000000e+00
752 1.0000000000e+00 1.0000000000e+00 2.0000000000e+00 8.0082191915e-01 5.5582323981e-01 -2.2303537812e-01 0.0000000000e+00
753 1.0000000000e+00 1.0000000000e+00 2.0000000000e+00 8.1323021946e-01 5.7666472857e-01 7.8194635247e-02 -0.0000000000e+00
754 1.0000000000e+00 1.0000000000e+00 2.0000000000e+00 7.2172348735e-01 -4.4649159651e-01 5.2892387169e-01 0.0000000000e+00
755 1.0000000000e+00 1.0000000000e+00 2.0000000000e+00 7.9456137640e-01 2.8461950968e-02 -6.0651639424e-01 0.0000000000e+00
756 1.0000000000e+00 1.0000000000e+00 2.0000000000e+00 2.6295341689e-01 3.8903325174e-01 -8.8289785909e-01 0.0000000000e+00
757 1.0000000000e+00 1.0000000000e+00 2.0000000000e+00 6.7295887240e-01 4.0903742596e-01 -6.1629111646e-01 0.0000000000e+00
758 1.0000000000e+00 1.0000000000e+00 2.0000000000e+00 3.1739971097e-01 9.0785569355e-01 2.7396252145e-01 -0.0000000000e+00
759 1.0000000000e+00 1.0000000000e+00 2.0000000000e+00 4.0749168670e-01 7.3884490608e-01 5.3671103028e-01 -0.0000000000e+00
760 1.0000000000e+00 1.0000000000e+00 2.0000000000e+00 5.5623940050e-01 7.6553979094e-01 -3.2333660142e-01 0.0000000000e+00
761 1.0000000000e+00 1.0000000000e+00 2.0000000000e+00 6.0310719046e-01 7.8589228899e-01 -1.3651017153e-01 0.0000000000e+00
762 1.0000000000e+00 1.0000000000e+00 2.0000000000e+00 9.4981905186e-01 2.5479968329e-01 1.8144114779e-01 -0.0000000000e+00
763 1.0000000000e+00 1.0000000000e+00 2.0000000000e+00 6.6759705280e-01 3.7173520411e-01 6.4507915260e-01 -0.0000000000e+00
764 1.0000000000e+00 1.0000000000e+00 2.0000000000e+00 6.2444950747e-01 7.4290242674e-01 2.4116135048e-01 -0.0000000000e+00
765 1.0000000000e+00 1.0000000000e+00 2.0000000000e+00 7.4736516002e-01 -5.8231217809e-01 3.1993412578e-01 0.0000000000e+00
766 1.0000000000e+00 1.0000000000e+00 2.0000000000e+00 8.6195955343e-01 3.1001958203e-01 4.0114035825e-01 -0.0000000000e+00
767 1.0000000000e+00 1.0000000000e+00 2.0000000000e+00 5.2489084887e-01 -7.6874088954e-01 3.6541352126e-01 0.0000000000e+00
768 1.0000000000e+00 1.0000000000e+00 2.0000000000e+00 8.8553651824e-01 -2.1592392463e-01 -4.1134162643e-01 0.0000000000e+00
769 1.0000000000e+00 1.0000000000e+00 2.0000000000e+00 2.0796564896e-01 4.6710364289e-01 -8.5939774008e-01 0.0000000000e+00
770 1.0000000000e+00 1.0000000000e+00 2.0000000000e+00 7.0358973579e-01 -5.3455627967e-01 -4.6819981584e-01 0.0000000000e+00
771 1.0000000000e+00 1.0000000000e+00 2.0000000000e+00 6.8696074984e-01 4.8381127890e-01 -5.4222834175e-01 0.0000000000e+00
772 1.0000000000e+00 1.0000000000e+00 2.0000000000e+00 4.2132947611e-01 -5.8358316885e-01 -6.9419893229e-01 0.0000000000e+00
773 1.0000000000e+00 1.0000000000e+00 2.0000000000e+00 8.9875859751e-01 -4.1358867179e-01 -1.4552454766e-01 0.0000000000e+00
774 1.0000000000e+00 1.0000000000e+00 2.0000000000e+00 9.9666949635e-01 8.1543434369e-02 7.6378069379e-04 -0.0000000000e+00
775 1.0000000000e+00 1.0000000000e+00 2.0000000000e+00 5.2425888193e-01 -8.5088477531e-01 -3.3878073615e-02 0.0000000000e+00
776 1.0000000000e+00 1.0000000000e+00 2.0000000000e+00 5.7074877586e-01 -8.1967300535e-01 -4.8805728668e-02 0.0000000000e+00
777 1.0000000000e+00 1.0000000000e+00 2.0000000000e+00 6.1955663121e-01 2.0002105219e-02 7.8469707309e-01 -0.0000000000e+00
778 1.0000000000e+00 1.0000000000e+00 2.0000000000e+00 8.7925912178e-01 4.5757492741e-01 1.3239555347e-01 -0.0000000000e+00
779 1.0000000000e+00 1.0000000000e+00 2.0000000000e+00 1.3668409812e-01 -9.5540834439e-01 -2.6174864429e-01 0.0000000000e+00
780 1.0000000000e+00 1.0000000000e+00 2.0000000000e+00 6.3403204004e-01 -5.3898230419e-01 5.5452813092e-01 0.0000000000e+00
781 1.0000000000e+00 1.0000000000e+00 2.0000000000e+00 7.6929295803e-01 5.8516320403e-01 -2.5646124343e-01 0.0000000000e+00
782 1.0000000000e+00 1.0000000000e+00 2.0000000000e+00 7.0532121725e-01 2.4900988228e-01 6.6371383820e-01 -0.0000000000e+00
783 1.0000000000e+00 1.0000000000e+00 2.0000000000e+00 6.4494848514e-01 6.8587700358e-01 -3.3706703706e-01 0.0000000000e+00
784 1.0000000000e+00 1.0000000000e+00 2.0000000000e+00 1.7815913498e-01 3.2522284797e-01 9.2870308591e-01 -0.0000000000e+00
785 1.0000000000e+00 1.0000000000e+00 2.0000000000e+00 6.1587591396e-01 1.1030554715e-01 7.8008303717e-01 -0.0000000000e+00
786 1.0000000000e+00 1.0000000000e+00 2.0000000000e+00 1.7678790878e-01 9.7319777908e-01 1.4707861200e-01 -0.0000000000e+00
787 1.0000000000e+00 1.0000000000e+00 2.0000000000e+00 2.5652160269e-01 -5.3628270700e-01 -8.0411288108e-01 0.0000000000e+00
788 1.0000000000e+00 1.0000000000e+00 2.0000000000e+00 4.0038107500e-01 -6.9956600049e-01 5.9186350263e-01 0.0000000000e+00
789 1.0000000000e+00 1.0000000000e+00 2.0000000000e+00 7.6049863068e-01 4.6417128788e-02 6.4767837920e-01 -0.0000000000e+00
790 1.0000000000e+00 1.0000000000e+00 2.0000000000e+00 8.8721864271e-01 -2.3226673453e-01 -3.9861666306e-01 0.0000000000e+00
791 1.0000000000e+00 1.0000000000e+00 2.0000000000e+00 9.2099301501e-01 -8.3394096116e-02 -3.8054867105e-01 0.0000000000e+00
792 1.0000000000e+00 1.0000000000e+00 2.0000000000e+00 5.9031925154e-01 3.3139967982e-01 -7.3600097382e-01 0.0000000000e+00
793 1.0000000000e+00 1.0000000000e+00 2.0000000000e+00 6.2034192636e-01 -5.4110396764e-01 5.6778727584e-01 0.0000000000e+00
794 1.0000000000e+00 1.0000000000e+00 2.0000000000e+00 6.3707799567e-01 6.0521372103e-01 4.7733424275e-01 -0.0000000000e+00
795 1.0000000000e+00 1.0000000000e+00 2.0000000000e+00 6.3672507851e-01 -3.4417762884e-01 -6.9001661879e-01 0.0000000000e+00
796 1.0000000000e+00 1.0000000000e+00 2.0000000000e+00 3.7694198505e-01 4.4212367073e-01 8.1390503112e-01 -0.0000000000e+00
797 1.0000000000e+00 1.0000000000e+00 2.0000000000e+00 4.3837484983e-01 -6.7304635334e-01 -5.9568120442e-01 0.0000000000e+00
798 1.0000000000e+00 1.0000000000e+00 2.0000000000e+00 7.1695406705e-01 6.8352908772e-01 -1.3698486042e-01 0.0000000000e+00
799 1.0000000000e+00 1.0000000000e+00 2.0000000000e+00 8.7142876727e-01 -3.2066628631e-01 -3.7119406838e-01 0.0000000000e+00
800 1.0000000000e+00 1.0000000000e+00 2.0000000000e+00 5.3874593882e-01 5.7774494215e-01 -6.1315870312e-01 0.0000000000e+00
801 1.0000000000e+00 1.0000000000e+00 2.0000000000e+00 8.6454464548e-01 -4.7359244891e-01 1.6814502166e-01 0.0000000000e+00
802 1.0000000000e+00 1.0000000000e+00 2.0000000000e+00 8.1807698778e-02 2.5129287449e-01 9.6444771328e-01 -0.0000000000e+00
803 1.0000000000e+00 1.0000000000e+00 2.0000000000e+00 9.8643172255e-01 1.6400519006e-01 7.3996201898e-03 -0.0000000000e+00
804 1.0000000000e+00 1.0000000000e+00 2.0000000000e+00 4.9932796423e-01 -5.8984467129e-01 -6.3462969351e-01 0.0000000000e+00
805 1.0000000000e+00 1.0000000000e+00 2.0000000000e+00 8.0703549470e-01 3.2775575621e-01 4.9119229896e-01 -0.0000000000e+00
806 1.0000000000e+00 1.0000000000e+00 2.0000000000e+00 7.7622389815e-01 4.7385331555e-01 -4.1585994672e-01 0.0000000000e+00
807 1.0000000000e+00 1.0000000000e+00 2.0000000000e+00 4.4995788953e-01 3.5937825317e-01 8.1754826696e-01 -0.0000000000e+00
808 1.0000000000e+00 1.0000000000e+00 2.0000000000e+00 9.8332589449e-01 8.6164094582e-02 -1.6014347954e-01 0.0000000000e+00
809 1.0000000000e+00 1.0000000000e+00 2.0000000000e+00 9.9802824833e-01 -6.1723780177e-02 1.1392563253e-02 0.0000000000e+00
810 1.0000000000e+00 1.0000000000e+00 2.0000000000e+00 7.5111331331e-01 1.3258554739e-01 6.4672240041e-01 -0.0000000000e+00
811 1.0000000000e+00 1.0000000000e+00 2.0000000000e+00 6.1628565652e-01 2.8327972921e-01 -7.3480921645e-01 0.0000000000e+00
812 1.0000000000e+00 1.0000000000e+00 2.0000000000e+00 9.4627315096e-01 1.7127532651e-01 2.7428431654e-01 -0.0000000000e+00
813 1.0000000000e+00 1.0000000000e+00 2.0000000000e+00 9.4255297701e-01 -1.4141457442e-01 -3.0264798641e-01 0.0000000000e+00
814 1.0000000000e+00 1.0000000000e+00 2.0000000000e+00 5.6903032941e-01 5.0784395566e-01 6.4676038910e-01 -0.0000000000e+00
815 1.0000000000e+00 1.0000000000e+00 2.0000000000e+00 5.5087293447e-01 -2.6428789928e-01 7.9163812210e-01 0.0000000000e+00
816 1.0000000000e+00 1.0000000000e+00 2.0000000000e+00 8.6701538900e-02 9.1680602015e-01 3.8980708636e-01 -0.0000000000e+00
817 1.0000000000e+00 1.0000000000e+00 2.0000000000e+00 5.3439551437e-01 -4.6776984836e-01 7.0399772953e-01 0.0000000000e+00
818 1.0000000000e+00 1.0000000000e+00 2.0000000000e+00 7.4013006738e-01 5.4858015073e-02 6.7022241200e-01 -0.0000000000e+00
819 1.0000000000e+00 1.0000000000e+00 2.0000000000e+00 8.4666268479e-01 -4.8146882046e-01 2.2660554518e-01 0.0000000000e+00
820 1.0000000000e+00 1.0000000000e+00 2.0000000000e+00 9.6557190680e-01 2.5547537520e-01 4.9022703469e-02 -0.0000000000e+00
821 1.0000000000e+00 1.0000000000e+00 2.0000000000e+00 9.5462808391e-01 2.8473082558e-01 -8.7255821468e-02 0.0000000000e+00
822 1.0000000000e+00 1.0000000000e+00 2.0000000000e+00 7.2027992299e-01 -5.5414330586e-01 -4.1727931784e-01 0.0000000000e+00
823 1.0000000000e+00 1.0000000000e+00 2.0000000000e+00 4.7339751144e-01 -6.2937895044e-01 6.1626044243e-01 0.0000000000e+00
824 1.0000000000e+00 1.0000000000e+00 2.0000000000e+00 8.9311297607e-02 -9.9383871765e-01 6.5636083283e-02 0.0000000000e+00
825 1.0000000000e+00 1.0000000000e+00 2.0000000000e+00 4.8305554302e-01 -8.6844258648e-01 1.1164594192e-01 0.0000000000e+00
826 1.0000000000e+00 1.0000000000e+00 2.0000000000e+00 7.9701964725e-01 1.4792682437e-01 -5.8555728714e-01 0.0000000000e+00
827 1.0000000000e+00 1.0000000000e+00 2.0000000000e+00 8.9638969066e-01 -4.3904589320e-01 6.1026438123e-02 0.0000000000e+00
828 1.0000000000e+00 1.0000000000e+00 2.0000000000e+00 4.8056017393e-01 -8.7214053735e-01 -9.1830290983e-02 0.0000000000e+00
829 1.0000000000e+00 1.0000000000e+00 2.0000000000e+00 7.0062813457e-01 3.4042388813e-01 -6.2708196708e-01 0.0000000000e+00
830 1.0000000000e+00 1.0000000000e+00 2.0000000000e+00 9.2054013592e-01 7.5951665175e-02 -3.8319342729e-01 0.0000000000e+00
831 1.0000000000e+00 1.0000000000e+00 2.0000000000e+00 7.9565376196e-01 6.0506491124e-01 2.8836509260e-02 -0.0000000000e+00
832 1.0000000000e+00 1.0000000000e+00 2.0000000000e+00 7.6112225613e-01 5.4394784468e-01 3.5328975855e-01 -0.0000000000e+00
833 1.0000000000e+00 1.0000000000e+00 2.0000000000e+00 7.7282183996e-01 -2.6100993227e-01 5.7846367123e-01 0.0000000000e+00
834 1.0000000000e+00 1.0000000000e+00 2.0000000000e+00 3.6188839846e-01 9.1927462728e-01 -1.5482553631e-01 0.0000000000e+00
835 1.0000000000e+00 1.0000000000e+00 2.0000000000e+00 4.5104277255e-01 6.3385220779e-01 6.2832459447e-01 -0.0000000000e+00
836 1.0000000000e+00 1.0000000000e+00 2.0000000000e+00 4.3830882946e-01 -1.0945464301e-01 8.9213510812e-01 0.0000000000e+00
837 1.0000000000e+00 1.0000000000e+00 2.0000000000e+00 9.0688128697e-01 -2.6296995377e-01 -3.2926149904e-01 0.0000000000e+00
838 1.0000000000e+00 1.0000000000e+00 2.0000000000e+00 6.9327212697e-01 -7.0783809040e-01 1.3542154831e-01 0.0000000000e+00
839 1.0000000000e+00 1.0000000000e+00 2.0000000000e+00 3.9424230459e-01 -5.5574542285e-01 -7.3192897897e-01 0.0000000000e+00
840 1.0000000000e+00 1.0000000000e+00 2.0000000000e+00 1.1555448369e-01 -1.9429799526e-01 -9.7411264766e-01 0.0000000000e+00
841 1.0000000000e+00 1.0000000000e+00 2.0000000000e+00 7.9868993604e-01 -7.2250067525e-02 5.9738958294e-01 0.0000000000e+00
842 1.0000000000e+00 1.0000000000e+00 2.0000000000e+00 7.0667504131e-01 1.0104615078e-01 -7.0028569984e-01 0.0000000000e+00
843 1.0000000000e+00 1.0000000000e+00 2.0000000000e+00 3.4312531496e-01 -3.2239631178e-01 8.8222765565e-01 0.0000000000e+00
844 1.0000000000e+00 1.0000000000e+00 2.0000000000e+00 2.0685757562e-01 3.9485648369e-01 8.9515266893e-01 -0.0000000000e+00
845 1.0000000000e+00 1.0000000000e+00 2.0000000000e+00 9.5341832271e-01 -9.7295860318e-02 2.8552936361e-01 0.0000000000e+00
846 1.0000000000e+00 1.0000000000e+00 2.0000000000e+00 9.7025201649e-01 2.3676452123e-01 5.0533018765e-02 -0.0000000000e+00
847 1.0000000000e+00 1.0000000000e+00 2.0000000000e+00 9.1620981060e-01 -3.0968471071e-01 2.5427340190e-01 0.0000000000e+00
848 1.0000000000e+00 1.0000000000e+00 2.0000000000e+00 9.6846480278e-01 -1.7632927490e-01 -1.7602247754e-01 0.0000000000e+00
849 1.0000000000e+00 1.0000000000e+00 2.0000000000e+00 3.3459992165e-01 8.5189668273e-01 -4.0288327637e-01 0.0000000000e+00
850 1.0000000000e+00 1.0000000000e+00 2.0000000000e+00 7.0095547927e-01 -1.5045902760e-01 6.9715385468e-01 0.0000000000e+00
851 1.0000000000e+00 1.0000000000e+00 2.0000000000e+00 9.4137464686e-01 -1.0797001709e-01 -3.1961891318e-01 0.0000000000e+00
852 1.0000000000e+00 1.0000000000e+00 2.0000000000e+00 3.3115427628e-01 7.3274493357e-01 5.9449281546e-01 -0.0000000000e+00
853 1.0000000000e+00 1.0000000000e+00 2.0000000000e+00 5.9471576898e-01 4.9599445807e-01 -6.3269475396e-01 0.0000000000e+00
854 1.0000000000e+00 1.0000000000e+00 2.0000000000e+00 9.9218788306e-01 1.2165272533e-01 2.7637277900e-02 -0.0000000000e+00
855 1.0000000000e+00 1.0000000000e+00 2.0000000000e+00 8.7228134393e-01 -2.8804779065e-01 -3.9516291241e-01 0.0000000000e+00
856 1.0000000000e+00 1.0000000000e+00 2.0000000000e+00 8.6790438280e-01 1.2942765586e-01 -4.7957321048e-01 0.0000000000e+00
857 1.0000000000e+00 1.0000000000e+00 2.0000000000e+00 7.7161387491e-01 -1.8741228726e-01 6.0785579099e-01 0.0000000000e+00
858 1.0000000000e+00 1.0000000000e+00 2.0000000000e+00 8.2170671539e-02 6.4115018821e-01 7.6300354973e-01 -0.0000000000e+00
859 1.0000000000e+00 1.0000000000e+00 2.0000000000e+00 7.7771918714e-01 6.2743077284e-01 3.8516116599e-02 -0.0000000000e+00
860 1.0000000000e+00 1.0000000000e+00 2.0000000000e+00 8.7499206824e-01 2.8940059987e-01 -3.8811876187e-01 0.0000000000e+00
861 1.0000000000e+00 1.0000000000e+00 2.0000000000e+00 8.9274137600e-01 4.1308775766e-02 -4.4867184069e-01 0.0000000000e+00
862 1.0000000000e+00 1.0000000000e+00 2.0000000000e+00 3.7362389917e-01 3.9182004203e-02 -9.2675236850e-01 0.0000000000e+00
863 1.0000000000e+00 1.0000000000e+00 2.0000000000e+00 9.6960637209e-01 1.7199686340e-03 -2.4466410628e-01 0.0000000000e+00
864 1.0000000000e+00 1.0000000000e+00 2.0000000000e+00 9.8114369024e-01 -1.3686437261e-01 -1.3647418297e-01 0.0000000000e+00
865 1.0000000000e+00 1.0000000000e+00 2.0000000000e+00 9.0108474932e-01 3.8310700044e-01 2.0316323673e-01 -0.0000000000e+00
866 1.0000000000e+00 1.0000000000e+00 2.0000000000e+00 6.4300734776e-01 -3.7988579822e-01 6.6500250453e-01 0.0000000000e+00
867 1.0000000000e+00 1.0000000000e+00 2.0000000000e+00 8.8768208035e-01 2.1461928728e-01 4.0738076262e-01 -0.0000000000e+00
868 1.0000000000e+00 1.0000000000e+00 2.0000000000e+00 4.4284272205e-01 5.3002015179e-01 7.2316592994e-01 -0.0000000000e+00
869 1.0000000000e+00 1.0000000000e+00 2.0000000000e+00 9.1193240319e-01 3.1904221954e-01 -2.5805300648e-01 0.0000000000e+00
870 1.0000000000e+00 1.0000000000e+00 2.0000000000e+00 8.3672332066e-01 4.2724953662e-01 -3.4256666229e-01 0.0000000000e+00
871 1.0000000000e+00 1.0000000000e+00 2.0000000000e+00 9.4490925137e-02 6.3383450930e-01 -7.6767524376e-01 0.0000000000e+00
872 1.0000000000e+00 1.0000000000e+00 2.0000000000e+00 5.1445408705e-01 4.1717196651e-01 7.4920260456e-01 -0.0000000000e+00
873 1.0000000000e+00 1.0000000000e+00 2.0000000000e+00 9.7530235734e-01 2.1804957487e-01 -3.5209297969e-02 0.0000000000e+00
874 1.0000000000e+00 1.0000000000e+00 2.0000000000e+00 6.3230213834e-01 5.3568174035e-01 5.5967765625e-01 -0.0000000000e+00
875 1.0000000000e+00 1.0000000000e+00 2.0000000000e+00 3.6850562303e-01 2.1577680798e-01 -9.0423668082e-01 0.0000000000e+00
876 1.0000000000e+00 1.0000000000e+00 2.0000000000e+00 9.4029618574e-01 1.9664144060e-01 -2.7780429609e-01 0.0000000000e+00
877 1.0000000000e+00 1.0000000000e+00 2.0000000000e+00 7.0647924863e-01 5.0695505516e-01 4.9384576874e-01 -0.0000000000e+00
878 1.0000000000e+00 1.0000000000e+00 2.0000000000e+00 3.4558730473e-01 -6.5745456475e-01 6.6956919739e-01 0.0000000000e+00
879 1.0000000000e+00 1.0000000000e+00 2.0000000000e+00 9.0833584340e-01 2.0053536271e-01 3.6703073972e-01 -0.0000000000e+00
880 1.0000000000e+00 1.0000000000e+00 2.0000000000e+00 4.5267622653e-01 -2.6457870127e-01 -8.5151767144e-01 0.0000000000e+00
881 1.0000000000e+00 1.0000000000e+00 2.0000000000e+00 1.7124109890e-01 -1.5599572609e-01 -9.7280101742e-01 0.0000000000e+00
882 1.0000000000e+00 1.0000000000e+00 2.0000000000e+00 7.6466123045e-01 -6.3417960271e-01 -1.1449643728e-01 0.0000000000e+00
883 1.0000000000e+00 1.0000000000e+00 2.0000000000e+00 8.2934633739e-01 -2.2146349575e-01 5.1297034291e-01 0.0000000000e+00
884 1.0000000000e+00 1.0000000000e+00 2.0000000000e+00 7.1923576990e-01 6.8448601754e-01 -1.1907476261e-01 0.0000000000e+00
885 1.0000000000e+00 1.0000000000e+00 2.0000000000e+00 9.9230623271e-01 1.0285292958e-01 -6.8917453510e-02 0.0000000000e+00
886 1.0000000000e+00 1.0000000000e+00 2.0000000000e+00 7.7272932353e-01 1.6123247289e-01 -6.1391651081e-01 0.0000000000e+00
887 1.0000000000e+00 1.0000000000e+00 2.0000000000e+00 2.8242102148e-01 -9.4039985764e-01 1.8943725710e-01 0.0000000000e+00
888 1.0000000000e+00 1.0000000000e+00 2.0000000000e+00 8.7505119009e-01 4.6084666393e-02 4.8183152475e-01 -0.0000000000e+00
889 1.0000000000e+00 1.0000000000e+00 2.0000000000e+00 5.4334144304e-01 -5.4612180368e-01 6.3759787627e-01 0.0000000000e+00
890 1.0000000000e+00 1.0000000000e+00 2.0000000000e+00 4.4338093920e-01 8.9596310609e-01 -2.5757625787e-02 0.0000000000e+00
891 1.0000000000e+00 1.0000000000e+00 2.0000000000e+00 3.2718880240e-01 7.3453118359e-01 -5.9448416961e-01 0.0000000000e+00
892 1.0000000000e+00 1.0000000000e+00 2.0000000000e+00 9.7305139719e-01 -6.6529060014e-02 2.2078238745e-01 0.0000000000e+00
893 1.0000000000e+00 1.0000000000e+00 2.0000000000e+00 9.4311259693e-01 -2.3945035698e-01 -2.3065592568e-01 0.0000000000e+00
894 1.0000000000e+00 1.0000000000e+00 2.0000000000e+00 4.8044289475e-01 -4.8007319226e-02 8.7571109516e-01 0.0000000000e+00
895 1.0000000000e+00 1.0000000000e+00 2.0000000000e+00 5.5234241329e-01 -6.4916079126e-01 5.2298004319e-01 0.0000000000e+00
896 1.0000000000e+00 1.0000000000e+00 2.0000000000e+00 9.8760154861e-01 -8.1272541144e-02 1.3430545497e-01 0.0000000000e+00
897 1.0000000000e+00 1.0000000000e+00 2.0000000000e+00 6.3706481690e-01 -7.5260784373e-01 -1.6652282913e-01 0.0000000000e+00
898 1.0000000000e+00 1.0000000000e+00 2.0000000000e+00 6.7255486979e-01 1.6754197106e-01 7.2083259849e-01 -0.0000000000e+00
899 1.0000000000e+00 1.0000000000e+00 2.0000000000e+00 7.2653973120e-01 6.6559465871e-01 -1.7065687586e-01 0.0000000000e+00
900 1.0000000000e+00 1.0000000000e+00 2.0000000000e+00 6.5131103448e-01 1.9631805710e-01 -7.3297554994e-01 0.0000000000e+00
901 1.0000000000e+00 1.0000000000e+00 2.0000000000e+00 6.8841321160e-01 2.3079879343e-01 6.8761847492e-01 -0.0000000000e+00
902 1.0000000000e+00 1.0000000000e+00 2.0000000000e+00 6.6298843620e-01 6.8912480666e-01 -2.9249501587e-01 0.0000000000e+00
903 1.0000000000e+00 1.0000000000e+00 2.0000000000e+00 9.0206955592e-01 -2.0523469569e-01 3.7966990396e-01 0.0000000000e+00
904 1.0000000000e+00 1.0000000000e+00 2.0000000000e+00 3.5081231996e-01 -2.7604506992e-01 8.9483508846e-01 0.0000000000e+00
905 1.0000000000e+00 1.0000000000e+00 2.0000000000e+00 8.8365230125e-01 6.9860835325e-02 -4.6290179755e-01 0.0000000000e+00
906 1.0000000000e+00 1.0000000000e+00 2.0000000000e+00 3.2120605621e-01 6.9830130102e-01 -6.3968895758e-01 0.0000000000e+00
907 1.0000000000e+00 1.0000000000e+00 2.0000000000e+00 8.1596164883e-01 -4.1569156073e-01 -4.0175504226e-01 0.0000000000e+00
908 1.0000000000e+00 1.0000000000e+00 2.0000000000e+00 7.1950402194e-01 -2.4831821927e-01 -6.4857692249e-01 0.0000000000e+00
909 1.0000000000e+00 1.0000000000e+00 2.0000000000e+00 7.3483127802e-01 6.3019253705e-01 -2.5075956429e-01 0.0000000000e+00
910 1.0000000000e+00 1.0000000000e+00 2.0000000000e+00 8.7955980551e-01 -1.6617080609e-02 4.7549807692e-01 0.0000000000e+00
911 1.0000000000e+00 1.0000000000e+00 2.0000000000e+00 4.1993664534e-01 8.4912066550e-01 3.2038618777e-01 -0.0000000000e+00
912 1.0000000000e+00 1.0000000000e+00 2.0000000000e+00 7.6563635332e-01 -3.1967256707e-02 6.4247884710e-01 0.0000000000e+00
913 1.0000000000e+00 1.0000000000e+00 2.0000000000e+00 9.0456148082e-01 -1.4278911662e-01 -4.0172104201e-01 0.0000000000e+00
914 1.0000000000e+00 1.0000000000e+00 2.0000000000e+00 1.9148962577e-01 8.1837995178e-01 -5.4183574794e-01 0.0000000000e+00
915 1.0000000000e+00 1.0000000000e+00 2.0000000000e+00 6.5841797278e-01 5.7484749466e-01 4.8583549788e-01 -0.0000000000e+00
916 1.0000000000e+00 1.0000000000e+00 2.0000000000e+00 6.8889137368e-01 -7.1272395617e-01 -1.3211070197e-01 0.0000000000e+00
917 1.0000000000e+00 1.0000000000e+00 2.0000000000e+00 8.7472338194e-01 -2.7540674302e-01 3.9876074403e-01 0.0000000000e+00
918 1.0000000000e+00 1.0000000000e+00 2.0000000000e+00 4.1527559373e-01 4.1634875615e-01 8.0882624494e-01 -0.0000000000e+00
919 1.0000000000e+00 1.0000000000e+00 2.0000000000e+00 9.2689208863e-01 -3.2667182370e-01 -1.8481497677e-01 0.0000000000e+00
920 1.0000000000e+00 1.0000000000e+00 2.0000000000e+00 6.6096919606e-01 7.4182409499e-01 -1.1321101513e-01 0.0000000000e+00
921 1.0000000000e+00 1.0000000000e+00 2.0000000000e+00 9.6171423322e-01 1.9095062020e-01 1.9657974022e-01 -0.0000000000e+00
922 1.0000000000e+00 1.0000000000e+00 2.0000000000e+00 7.1424047115e-01 1.7238044530e-01 6.7834027704e-01 -0.0000000000e+00
923 1.0000000000e+00 1.0000000000e+00 2.0000000000e+00 8.0572725270e-01 2.4486936563e-01 5.3929823662e-01 -0.0000000000e+00
924 1.0000000000e+00 1.0000000000e+00 2.0000000000e+00 6.7515351133e-01 4.7285581457e-01 5.6619353119e-01 -0.0000000000e+00
925 1.0000000000e+00 1.0000000000e+00 2.0000000000e+00 7.7535187742e-01 5.1256681510e-01 -3.6892374043e-01 0.0000000000e+00
926 1.0000000000e+00 1.0000000000e+00 2.0000000000e+00 5.7359428984e-01 6.6412847516e-01 -4.7950282497e-01 0.0000000000e+00
927 1.0000000000e+00 1.0000000000e+00 2.0000000000e+00 5.7202640680e-01 3.5216269443e-01 7.4078824679e-01 -0.0000000000e+00
928 1.0000000000e+00 1.0000000000e+00 2.0000000000e+00 4.3677420689e-01 2.8009799001e-01 8.5485285762e-01 -0.0000000000e+00
929 1.0000000000e+00 1.0000000000e+00 2.0000000000e+00 8.4219875071e-01 -3.4203098439e-01 -4.1679259833e-01 0.0000000000e+00
930 1.0000000000e+00 1.0000000000e+00 2.0000000000e+00 8.1317086795e-01 1.7928644903e-01 5.5372331422e-01 -0.0000000000e+00
931 1.0000000000e+00 1.0000000000e+00 2.0000000000e+00 9.1453712318e-01 3.6891076189e-01 -1.6591172379e-01 0.0000000000e+00
932 1.0000000000e+00 1.0000000000e+00 2.0000000000e+00 2.6447954186e-01 -6.7490150092e-01 -6.8888209150e-01 0.0000000000e+00
933 1.0000000000e+00 1.0000000000e+00 2.0000000000e+00 3.9880310992e-01 6.7585274022e-01 6.1982187204e-01 -0.0000000000e+00
934 1.0000000000e+00 1.0000000000e+00 2.0000000000e+00 5.3125474418e-01 8.3148176084e-01 1.6250070210e-01 -0.0000000000e+00
935 1.0000000000e+00 1.0000000000e+00 2.0000000000e+00 7.9322839862e-01 -3.2476001562e-01 -5.1509187518e-01 0.0000000000e+00
936 1.0000000000e+00 1.0000000000e+00 2.0000000000e+00 3.8702847489e-01 -8.4851513971e-01 3.6087534872e-01 0.0000000000e+00
937 1.0000000000e+00 1.0000000000e+00 2.0000000000e+00 1.9715391719e-01 3.1844826601e-02 9.7985521377e-01 -0.0000000000e+00
938 1.0000000000e+00 1.0000000000e+00 2.0000000000e+00 4.8218007202e-01 -5.2816747248e-01 -6.9895743730e-01 0.0000000000e+00
939 1.0000000000e+00 1.0000000000e+00 2.0000000000e+00 6.0311792924e-01 -7.9247608989e-01 -9.0721609216e-02 0.0000000000e+00
940 1.0000000000e+00 1.0000000000e+00 2.0000000000e+00 5.2153854164e-01 -2.7089309163e-01 -8.0908249424e-01 0.0000000000e+00
941 1.0000000000e+00 1.0000000000e+00 2.0000000000e+00 5.2489179963e-01 8.1597380020e-01 -2.4222996524e-01 0.0000000000e+00
942 1.0000000000e+00 1.0000000000e+00 2.0000000000e+00 7.8608588911e-01 -6.1011564984e-01 9.9135607964e-02 0.0000000000e+00
943 1.0000000000e+00 1.0000000000e+00 2.0000000000e+00 6.8967804745e-01 2.9437141312e-01 -6.6158118322e-01 0.0000000000e+00
944 1.0000000000e+00 1.0000000000e+00 2.0000000000e+00 9.3196522599e-01 -1.0633859354e-01 -3.4660196345e-01 0.0000000000e+00
945 1.0000000000e+00 1.0000000000e+00 2.0000000000e+00 8.9715713815e-01 4.3594066965e-01 -7.1167422357e-02 0.0000000000e+00
946 1.0000000000e+00 1.0000000000e+00 2.0000000000e+00 5.9683600596e-01 -7.0923697495e-02 -7.9922250414e-01 0.0000000000e+00
947 1.0000000000e+00 1.0000000000e+00 2.0000000000e+00 5.2811002544e-01 -8.3974214203e-01 1.2622573402e-01 0.0000000000e+00
948 1.0000000000e+00 1.0000000000e+00 2.0000000000e+00 6.2208387136e-01 7.8107578035e-01 5.4150552583e-02 -0.0000000000e+00
949 1.0000000000e+00 1.0000000000e+00 2.0000000000e+00 8.5027285997e-01 -5.1585796349e-01 -1.0453049842e-01 0.0000000000e+00
950 1.0000000000e+00 1.0000000000e+00 2.0000000000e+00 9.4905530040e-01 -2.8751366149e-01 -1.2895709066e-01 0.0000000000e+00
951 1.0000000000e+00 1.0000000000e+00 2.0000000000e+00 4.7219110609e-01 7.0204054844e-01 5.3308032010e-01 -0.0000000000e+00
952 1.0000000000e+00 1.0000000000e+00 2.0000000000e+00 3.5731998619e-01 -7.5251341126e-01 5.5321423820e-01 0.0000000000e+00
953 1.0000000000e+00 1.0000000000e+00 2.0000000000e+00 7.6847397343e-01 -2.8050794106e-01 -5.7512002848e-01 0.0000000000e+00
954 1.0000000000e+00 1.0000000000e+00 2.0000000000e+00 6.1701870333e-01 -6.3679325403e-01 -4.6236594960e-01 0.0000000000e+00
955 1.0000000000e+00 1.0000000000e+00 2.0000000000e+00 3.9498739798e-01 8.8656438728e-01 -2.4080810338e-01 0.0000000000e+00
956 1.0000000000e+00 1.0000000000e+00 2.0000000000e+00 8.5638949544e-01 -1.3760523520e-01 -4.9765633860e-01 0.0000000000e+00
957 1.0000000000e+00 1.0000000000e+00 2.0000000000e+00 2.3871503477e-01 9.2481681016e-01 -2.9619081658e-01 0.0000000000e+00
958 1.0000000000e+00 1.0000000000e+00 2.0000000000e+00 9.1634126792e-01 -3.7830173776e-01 1.3117345735e-01 0.0000000000e+00
959 1.0000000000e+00 1.0000000000e+00 2.0000000000e+00 9.7314361537e-01 1.5391605424e-01 -1.7117637720e-01 0.0000000000e+00
960 1.0000000000e+00 1.0000000000e+00 2.0000000000e+00 1.6948430237e-01 -3.0092269927e-01 -9.3846715463e-01 0.0000000000e+00
961 1.0000000000e+00 1.0000000000e+00 2.0000000000e+00 1.0651754931e-01 7.2377991885e-01 6.8175995831e-01 -0.0000000000e+00
962 1.0000000000e+00 1.0000000000e+00 2.0000000000e+00 7.2866688955e-01 6.7293670453e-01 1.2728218952e-01 -0.0000000000e+00
963 1.0000000000e+00 1.0000000000e+00 2.0000000000e+00 6.6712406339e-01 5.7904876227e-01 -4.6866620847e-01 0.0000000000e+00
964 1.0000000000e+00 1.0000000000e+00 2.0000000000e+00 9.5678267615e-01 -2.8942205468e-01 -2.8315806211e-02 0.0000000000e+00
965 1.0000000000e+00 1.0000000000e+00 2.0000000000e+00 8.8451833685e-01 4.5765225124e-01 9.0452908787e-02 -0.0000000000e+00
966 1.0000000000e+00 1.0000000000e+00 2.0000000000e+00 6.2834231126e-01 7.1101997566e-01 3.1565255279e-01 -0.0000000000e+00
967 1.0000000000e+00 1.0000000000e+00 2.0000000000e+00 8.0545548820e-01 -3.5716278187e-01 4.7294418675e-01 0.0000000000e+00
968 1.0000000000e+00 1.0000000000e+00 2.0000000000e+00 1.1337462454e-01 -6.1534401722e-01 7.8006277631e-01 0.0000000000e+00
969 1.0000000000e+00 1.0000000000e+00 2.0000000000e+00 9.2992610768e-01 -2.4860057101e-01 2.7098928089e-01 0.0000000000e+00
970 1.0000000000e+00 1.0000000000e+00 2.0000000000e+00 9.1216225240e-01 1.4025526327e-01 -3.8508244106e-01 0.0000000000e+00
971 1.0000000000e+00 1.0000000000e+00 2.0000000000e+00 5.4075587419e-01 -8.3540947693e-01 9.8356953885e-02 0.0000000000e+00
972 1.0000000000e+00 1.0000000000e+00 2.0000000000e+00 5.9748387745e-01 5.5648552500e-01 5.7735333779e-01 -0.0000000000e+00
973 1.0000000000e+00 1.0000000000e+00 2.0000000000e+00 7.1616143576e-01 1.9186294524e-01 -6.7104501203e-01 0.0000000000e+00
974 1.0000000000e+00 1.0000000000e+00 2.0000000000e+00 9.2034432894e-01 -2.3383148366e-02 3.9040945757e-01 0.0000000000e+00
975 1.0000000000e+00 1.0000000000e+00 2.0000000000e+00 5.3796463943e-01 8.4208692470e-01 -3.8518280959e-02 0.0000000000e+00
976 1.0000000000e+00 1.0000000000e+00 2.0000000000e+00 8.9159483544e-01 -4.4845527924e-01 6.2821269771e-02 0.0000000000e+00
977 1.0000000000e+00 1.0000000000e+00 2.0000000000e+00 3.0307793519e-01 7.4963859582e-01 5.8837551008e-01 -0.0000000000e+00
978 1.0000000000e+00 1.0000000000e+00 2.0000000000e+00 7.8675502801e-01 4.1788957975e-01 -4.5429596635e-01 0.0000000000e+00
979 1.0000000000e+00 1.0000000000e+00 2.0000000000e+00 9.2015653108e-01 -3.9146290795e-01 8.2915626301e-03 0.0000000000e+00
980 1.0000000000e+00 1.0000000000e+00 2.0000000000e+00 4.4519407555e-01 8.2378990531e-01 -3.5095929537e-01 0.0000000000e+00
981 1.0000000000e+00 1.0000000000e+00 2.0000000000e+00 3.8781916188e-01 -7.8540361854e-01 4.8242870320e-01 0.0000000000e+00
982 1.0000000000e+00 1.0000000000e+00 2.0000000000e+00 1.3917477935e-01 -1.0756750423e-01 9.8440825516e-01 0.0000000000e+00
983 1.0000000000e+00 1.0000000000e+00 2.0000000000e+00 5.7109336195e-01 -8.0011935769e-01 -1.8347039378e-01 0.0000000000e+00
984 1.0000000000e+00 1.0000000000e+00 2.0000000000e+00 9.3833153527e-01 2.3433096583e-01 -2.5421040179e-01 0.0000000000e+00
985 1.0000000000e+00 1.0000000000e+00 2.0000000000e+00 5.9631141803e-01 2.7161626552e-01 -7.5540538589e-01 0.0000000000e+00
986 1.0000000000e+00 1.0000000000e+00 2.0000000000e+00 6.4017781847e-01 7.6080148273e-01 -1.0655263777e-01 0.0000000000e+00
987 1.0000000000e+00 1.0000000000e+00 2.0000000000e+00 7.8987168181e-01 6.1083594451e-01 -5.4609295562e-02 0.0000000000e+00
988 1.0000000000e+00 1.0000000000e+00 2.0000000000e+00 8.1164655980e-01 -4.4712384888e-01 -3.7591239103e-01 0.0000000000e+00
989 1.0000000000e+00 1.0000000000e+00 2.0000000000e+00 4.8115707551e-01 -7.6508716143e-02 8.7328934783e-01 0.0000000000e+00
990 1.0000000000e+00 1.0000000000e+00 2.0000000000e+00 7.0851043646e-01 -4.3021734970e-01 -5.5939788473e-01 0.0000000000e+00
991 1.0000000000e+00 1.0000000000e+00 2.0000000000e+00 7.0972667753e-01 3.8319541176e-01 -5.9114238523e-01 0.0000000000e+00
992 1.0000000000e+00 1.0000000000e+00 2.0000000000e+00 7.1156659973e-01 -7.0032191376e-01 -5.6764348503e-02 0.0000000000e+00
993 1.0000000000e+00 1.0000000000e+00 2.0000000000e+00 1.1771125439e-01 7.3297199480e-01 6.6999710106e-01 -0.0000000000e+00
994 1.0000000000e+00 1.0000000000e+00 2.0000000000e+00 8.5173583794e-01 2.3024512709e-01 -4.7067318154e-01 0.0000000000e+00
995 1.0000000000e+00 1.0000000000e+00 2.0000000000e+00 5.5685705768e-01 -7.4762293599e-01 3.6189800069e-01 0.0000000000e+00
996 1.0000000000e+00 1.0000000000e+00 2.0000000000e+00 9.1844706332e-02 7.7186616646e-01 -6.2911618243e-01 0.0000000000e+00
997 1.0000000000e+00 1.0000000000e+00 2.0000000000e+00 3.1523078436e-01 1.2195086768e-01 -9.4114692714e-01 0.0000000000e+00
998 1.0000000000e+00 1.0000000000e+00 2.0000000000e+00 9.4066395553e-01 -2.1334873767e-02 -3.3866819445e-01 0.0000000000e+00
999 1.0000000000e+00 1.0000000000e+00 2.0000000000e+00 7.7230669439e-01 -9.6184675000e-02 6.2792585398e-01 0.0000000000e+00
1000 1.0000000000e+00 1.0000000000e+00 2.0000000000e+00 9.5582184159e-01 -1.7737934961e-01 2.3439533585e-01 0.0000000000e+00
1001 1.0000000000e+00 1.0000000000e+00 2.0000000000e+00 1.4817224692e-01 -9.7272446604e-01 1.7847156193e-01 0.0000000000e+00
1002 1.0000000000e+00 1.0000000000e+00 2.0000000000e+00 8.1056165813e-01 5.8507575308e-01 -2.6003106072e-02 0.0000000000e+00
1003 1.0000000000e+00 1.0000000000e+00 2.0000000000e+00 6.0937438720e-01 5.2572775482e-01 5.9352606011e-01 -0.0000000000e+00
1004 1.0000000000e+00 1.0000000000e+00 2.0000000000e+00 9.5420015193e-01 -1.5660169625e-01 -2.5490778486e-01 0.0000000000e+00
1005 1.0000000000e+00 1.0000000000e+00 2.0000000000e+00 4.9645429065e-01 -4.4968235819e-01 7.4250852792e-01 0.0000000000e+00
1006 1.0000000000e+00 1.0000000000e+00 2.0000000000e+00 9.7865635387e-01 4.5312051684e-02 2.0044590044e-01 -0.0000000000e+00
1007 1.0000000000e+00 1.0000000000e+00 2.0000000000e+00 7.7330676671e-01 5.9443064048e-01 2.2056486169e-01 -0.0000000000e+00
1008 1.0000000000e+00 1.0000000000e+00 2.0000000000e+00 5.9894156448e-01 -6.8501500640e-01 4.1475708955e-01 0.0000000000e+00
1009 1.0000000000e+00 1.0000000000e+00 2.0000000000e+00 5.7049713700e-01 -7.3347233091e-02 8.1801784826e-01 0.0000000000e+00
1010 1.0000000000e+00 1.0000000000e+00 2.0000000000e+00 5.2711728819e-01 -1.3495346071e-01 8.3900830028e-01 0.0000000000e+00
1011 1.0000000000e+00 1.0000000000e+00 2.0000000000e+00 6.3841612122e-01 -9.5705449341e-02 -7.6371809140e-01 0.0000000000e+00
1012 1.0000000000e+00 1.0000000000e+00 2.0000000000e+00 4.2062873986e-01 -7.4800172147e-01 -5.1338571063e-01 0.0000000000e+00
1013 1.0000000000e+00 1.0000000000e+00 2.0000000000e+00 6.4596952214e-01 -4.6199428759e-01 6.0768795833e-01 0.0000000000e+00
1014 1.0000000000e+00 1.0000000000e+00 2.0000000000e+00 4.2229376111e-01 -8.8259329136e-01 2.0663267255e-01 0.0000000000e+00
1015 1.0000000000e+00 1.0000000000e+00 2.0000000000e+00 7.1049113039e-01 -6.0799143225e-01 -3.5432862141e-01 0.0000000000e+00
1016 1.0000000000e+00 1.0000000000e+00 2.0000000000e+00 9.3047747954e-01 -3.6097021767e-01 -6.2547278270e-02 0.0000000000e+00
1017 1.0000000000e+00 1.0000000000e+00 2.0000000000e+00 8.9390566443e-01 -2.6313956031e-01 3.6289149191e-01 0.0000000000e+00
1018 1.0000000000e+00 1.0000000000e+00 2.0000000000e+00 3.9259202926e-01 -7.5785051026e-01 5.2108934230e-01 0.0000000000e+00
1019 1.0000000000e+00 1.0000000000e+00 2.0000000000e+00 5.1311337483e-01 -3.1898049787e-01 -7.9684760560e-01 0.0000000000e+00
1020 1.0000000000e+00 1.0000000000e+00 2.0000000000e+00 5.6796804492e-01 2.3855661102e-01 -7.8772015544e-01 0.0000000000e+00
1021 1.0000000000e+00 1.0000000000e+00 2.0000000000e+00 8.2077618116e-02 8.3654085774e-01 -5.4172193784e-01 0.0000000000e+00
1022 1.0000000000e+00 1.0000000000e+00 2.0000000000e+00 2.3745502314e-01 9.0899869506e-01 3.4254413492e-01 -0.0000000000e+00
1023 1.0000000000e+00 1.0000000000e+00 2.0000000000e+00 8.3617311687e-01 5.4211398612e-01 -8.3228268500e-02 0.0000000000e+00
1024 1.0000000000e+00 1.0000000000e+00 2.0000000000e+00 5.3839448756e-01 8.2013313867e-01 -1.9368275768e-01 0.0000000000e+00
1025 1.0000000000e+00 1.0000000000e+00 2.0000000000e+00 5.0295465973e-01 8.4052928861e-01 2.0136316754e-01 -0.0000000000e+00
1026 1.0000000000e+00 1.0000000000e+00 2.0000000000e+00 7.8193107142e-01 -9.9198875092e-02 6.1542130507e-01 0.0000000000e+00
1027 1.0000000000e+00 1.0000000000e+00 2.0000000000e+00 6.7974376888e-01 4.0065383843e-01 -6.1434917630e-01 0.0000000000e+00
1028 1.0000000000e+00 1.0000000000e+00 2.0000000000e+00 6.6838972440e-02 8.4972171585e-01 5.2297758784e-01 -0.0000000000e+00
1029 1.0000000000e+00 1.0000000000e+00 2.0000000000e+00 7.7850608220e-01 -3.7188577124e-01 5.0559791646e-01 0.0000000000e+00
1030 1.0000000000e+00 1.0000000000e+00 2.0000000000e+00 7.7657888946e-01 -6.3001609042e-01 2.2258173266e-03 0.0000000000e+00
1031 1.0000000000e+00 1.0000000000e+00 2.0000000000e+00 9.7480144464e-01 -1.4914833819e-01 1.6588223756e-01 0.0000000000e+00
1032 1.0000000000e+00 1.0000000000e+00 2.0000000000e+00 5.5628530124e-01 -7.4880297546e-01 -3.6033424424e-01 0.0000000000e+00
1033 1.0000000000e+00 1.0000000000e+00 2.0000000000e+00 3.2859006160e-01 -5.3637178369e-01 7.7738914392e-01 0.0000000000e+00
1034 1.0000000000e+00 1.0000000000e+00 2.0000000000e+00 9.2475098376e-01 -1.2823015687e-01 -3.5831919415e-01 0.0000000000e+00
1035 1.0000000000e+00 1.0000000000e+00 2.0000000000e+00 1.8413001226e-01 -7.4440323892e-01 -6.4184106792e-01 0.0000000000e+00
1036 1.0000000000e+00 1.0000000000e+00 2.0000000000e+00 7.5104790473e-01 2.2304912080e-01 6.2143071578e-01 -0.0000000000e+00
1037 1.0000000000e+00 1.0000000000e+00 2.0000000000e+00 6.6787200696e-01 6.6955625246e-01 3.2502524072e-01 -0.0000000000e+00
1038 1.0000000000e+00 1.0000000000e+00 2.0000000000e+00 6.9231380419e-01 -7.0925441041e-01 -1.3289009687e-01 0.0000000000e+00
1039 1.0000000000e+00 1.0000000000e+00 2.0000000000e+00 3.8292500080e-01 3.8216107533e-02 9.2298860929e-01 -0.0000000000e+00
1040 1.0000000000e+00 1.0000000000e+00 2.0000000000e+00 5.0856043068e-01 8.0885855991e-01 -2.9515100950e-01 0.0000000000e+00
1041 1.0000000000e+00 1.0000000000e+00 2.0000000000e+00 1.3145960995e-01 3.7194058796e-01 9.1890074001e-01 -0.0000000000e+00
1042 1.0000000000e+00 1.0000000000e+00 2.0000000000e+00 7.8438094596e-01 -6.1408524287e-01 8.7440528974e-02 0.0000000000e+00
1043 1.0000000000e+00 1.0000000000e+00 2.0000000000e+00 5.7444488281e-01 5.9420019623e-01 5.6297353705e-01 -0.0000000000e+00
1044 1.0000000000e+00 1.0000000000e+00 2.0000000000e+00 6.1325947303e-01 6.1255952927e-01 4.9868190446e-01 -0.0000000000e+00
1045 1.0000000000e+00 1.0000000000e+00 2.0000000000e+00 8.3999013683e-01 -3.3673886626e-01 -4.2546857226e-01 0.0000000000e+00
1046 1.0000000000e+00 1.0000000000e+00 2.0000000000e+00 4.2038485416e-01 -3.2743629251e-01 8.4620449582e-01 0.0000000000e+00
1047 1.0000000000e+00 1.0000000000e+00 2.0000000000e+00 4.9919594770e-01 -1.0746631098e-01 8.5979904501e-01 0.0000000000e+00
1048 1.0000000000e+00 1.0000000000e+00 2.0000000000e+00 5.9273415883e-01 -1.3988217501e-01 7.9315773593e-01 0.0000000000e+00
1049 1.0000000000e+00 1.0000000000e+00 2.0000000000e+00 6.1921240477e-01 4.3880279060e-01 6.5117440731e-01 -0.0000000000e+00
1050 1.0000000000e+00 1.0000000000e+00 2.0000000000e+00 8.6919128839e-01 -3.6533283458e-01 -3.3322428509e-01 0.0000000000e+00
1051 1.0000000000e+00 1.0000000000e+00 2.0000000000e+00 4.6717002094e-01 -3.4942922346e-01 -8.1218925709e-01 0.0000000000e+00
1052 1.0000000000e+00 1.0000000000e+00 2.0000000000e+00 9.2206888963e-01 -1.7542024117e-01 3.4498797336e-01 0.0000000000e+00
1053 1.0000000000e+00 1.0000000000e+00 2.0000000000e+00 1.2011535169e-01 -4.2995876341e-01 -8.9482275566e-01 0.0000000000e+00
1054 1.0000000000e+00 1.0000000000e+00 2.0000000000e+00 5.8950894618e-01 -7.8476008630e-01 -1.9139176924e-01 0.0000000000e+00
1055 1.0000000000e+00 1.0000000000e+00 2.0000000000e+00 4.6109033544e-01 5.2378093621e-01 7.1627455171e-01 -0.0000000000e+00
1056 1.0000000000e+00 1.0000000000e+00 2.0000000000e+00 6.3790608607e-01 -5.6792628240e-01 5.2013033281e-01 0.0000000000e+00
1057 1.0000000000e+00 1.0000000000e+00 2.0000000000e+00 2.5897679010e-01 -8.2907448305e-01 -4.9554669178e-01 0.0000000000e+00
1058 1.0000000000e+00 1.0000000000e+00 2.0000000000e+00 8.6879664298e-01 -3.3138097048e-01 3.6793891552e-01 0.0000000000e+00
1059 1.0000000000e+00 1.0000000000e+00 2.0000000000e+00 3.9475360491e-01 4.5616506904e-01 -7.9754813096e-01 0.0000000000e+00
1060 1.0000000000e+00 1.0000000000e+00 2.0000000000e+00 5.9334647439e-01 8.0175782523e-01 7.1584572355e-02 -0.0000000000e+00
1061 1.0000000000e+00 1.0000000000e+00 2.0000000000e+00 7.9171083210e-01 -6.1070099550e-01 -1.5435428095e-02 0.0000000000e+00
1062 1.0000000000e+00 1.0000000000e+00 2.0000000000e+00 5.6710102306e-01 7.1319782183e-01 4.1200157352e-01 -0.0000000000e+00
1063 1.0000000000e+00 1.0000000000e+00 2.0000000000e+00 8.7547046317e-01 2.6106703191e-01 -4.0668842246e-01 0.0000000000e+00
1064 1.0000000000e+00 1.0000000000e+00 2.0000000000e+00 1.5287290319e-01 8.0355692868e-01 -5.7526179939e-01 0.0000000000e+00
1065 1.0000000000e+00 1.0000000000e+00 2.0000000000e+00 7.8358010226e-01 6.1861905459e-01 -5.7555960952e-02 0.0000000000e+00
1066 1.0000000000e+00 1.0000000000e+00 2.0000000000e+00 2.7519786973e-01 8.2325383452e-01 4.9650705579e-01 -0.0000000000e+00
1067 1.0000000000e+00 1.0000000000e+00 2.0000000000e+00 9.6366658562e-01 -7.5572316556e-02 -2.5619433393e-01 0.0000000000e+00
1068 1.0000000000e+00 1.0000000000e+00 2.0000000000e+00 2.8593385286e-01 2.7598069450e-01 -9.1764725687e-01 0.0000000000e+00
1069 1.0000000000e+00 1.0000000000e+00 2.0000000000e+00 5.1256509643e-01 3.9971104809e-01 7.5993953704e-01 -0.0000000000e+00
1070 1.0000000000e+00 1.0000000000e+00 2.0000000000e+00 4.2602294979e-01 2.7716959122e-03 9.0470810981e-01 -0.0000000000e+00
1071 1.0000000000e+00 1.0000000000e+00 2.0000000000e+00 8.5478213653e-01 2.2872072695e-02 -5.1848275513e-01 0.0000000000e+00
1072 1.0000000000e+00 1.0000000000e+00 2.0000000000e+00 9.0032441096e-01 8.2543850526e-02 4.2732009990e-01 -0.0000000000e+00
1073 1.0000000000e+00 1.0000000000e+00 2.0000000000e+00 8.3790324559e-01 -2.5797444951e-01 -4.8100658460e-01 0.0000000000e+00
1074 1.0000000000e+00 1.0000000000e+00 2.0000000000e+00 5.1311057216e-01 -8.3314354791e-01 -2.0637191988e-01 0.0000000000e+00
1075 1.0000000000e+00 1.0000000000e+00 2.0000000000e+00 4.5828930521e-01 7.1950131061e-01 -5.2181297105e-01 0.0000000000e+00
1076 1.0000000000e+00 1.0000000000e+00 2.0000000000e+00 5.2829142321e-01 -6.5558345132e-01 5.3955399222e-01 0.0000000000e+00
1077 1.0000000000e+00 1.0000000000e+00 2.0000000000e+00 7.1818104324e-01 -4.2313830780e-01 5.5242190544e-01 0.0000000000e+00
1078 1.0000000000e+00 1.0000000000e+00 2.0000000000e+00 7.1313136762e-01 2.7184632427e-01 -6.4617584952e-01 0.0000000000e+00
1079 1.0000000000e+00 1.0000000000e+00 2.0000000000e+00 7.9090049681e-01 -2.8864332257e-01 -5.3959376987e-01 0.0000000000e+00
1080 1.0000000000e+00 1.0000000000e+00 2.0000000000e+00 4.8178641288e-01 4.7014751666e-01 7.3948844815e-01 -0.0000000000e+00
1081 1.0000000000e+00 1.0000000000e+00 2.0000000000e+00 8.9807852334e-01 -4.1211695037e-01 1.5367037820e-01 0.0000000000e+00
1082 1.0000000000e+00 1.0000000000e+00 2.0000000000e+00 4.8969837978e-01 8.4760305105e-03 -8.7185070611e-01 0.0000000000e+00
1083 1.0000000000e+00 1.0000000000e+00 2.0000000000e+00 7.3495205391e-01 -6.7126448621e-01 9.6174154568e-02 0.0000000000e+00
1084 1.0000000000e+00 1.0000000000e+00 2.0000000000e+00 8.7800512277e-01 -3.8821770164e-02 -4.7707428620e-01 0.0000000000e+00
1085 1.0000000000e+00 1.0000000000e+00 2.0000000000e+00 6.8164077378e-01 -6.9162096836e-01 -2.3880178317e-01 0.0000000000e+00
1086 1.0000000000e+00 1.0000000000e+00 2.0000000000e+00 3.4785677654e-01 -8.2940278191e-01 4.3713463415e-01 0.0000000000e+00
1087 1.0000000000e+00 1.0000000000e+00 2.0000000000e+00 3.0691550847e-01 -5.0621560783e-01 8.0594579784e-01 0.0000000000e+00
1088 1.0000000000e+00 1.0000000000e+00 2.0000000000e+00 8.5246629838e-01 -3.9464649343e-01 3.4286346458e-01 0.0000000000e+00
1089 1.0000000000e+00 1.0000000000e+00 2.0000000000e+00 7.2075790858e-01 -4.8676231282e-01 4.9352860914e-01 0.0000000000e+00
1090 1.0000000000e+00 1.0000000000e+00 2.0000000000e+00 8.2463768373e-01 1.4682100814e-01 5.4627491443e-01 -0.0000000000e+00
1091 1.0000000000e+00 1.0000000000e+00 2.0000000000e+00 6.1523901416e-01 4.8150497818e-01 -6.2420662560e-01 0.0000000000e+00
1092 1.0000000000e+00 1.0000000000e+00 2.0000000000e+00 9.5223623742e-01 -2.1102419942e-01 2.2071460171e-01 0.0000000000e+00
1093 1.0000000000e+00 1.0000000000e+00 2.0000000000e+00 2.4031083328e-01 4.7225124023e-01 8.4807397643e-01 -0.0000000000e+00
1094 1.0000000000e+00 1.0000000000e+00 2.0000000000e+00 4.0750468159e-01 -8.9480093437e-01 1.8240400856e-01 0.0000000000e+00
1095 1.0000000000e+00 1.0000000000e+00 2.0000000000e+00 8.2033729566e-01 5.0303302773e-01 -2.7203767084e-01 0.0000000000e+00
1096 1.0000000000e+00 1.0000000000e+00 2.0000000000e+00 3.7660968856e-01 -3.8640052146e-01 -8.4193810906e-01 0.0000000000e+00
1097 1.0000000000e+00 1.0000000000e+00 2.0000000000e+00 7.7995853780e-01 -6.0296492678e-01 -1.6762451009e-01 0.0000000000e+00
1098 1.0000000000e+00 1.0000000000e+00 2.0000000000e+00 2.4204233958e-01 2.6512953714e-01 9.3333907793e-01 -0.0000000000e+00
1099 1.0000000000e+00 1.0000000000e+00 2.0000000000e+00 4.3000283166e-01 -2.2418688585e-01 -8.7455005859e-01 0.0000000000e+00
1100 1.0000000000e+00 1.0000000000e+00 2.0000000000e+00 6.3897890024e-01 7.6472302744e-01 -8.3094261911e-02 0.0000000000e+00
1101 1.0000000000e+00 1.0000000000e+00 2.0000000000e+00 9.4572064510e-01 3.1956998690e-01 5.9054931297e-02 -0.0000000000e+00
1102 1.0000000000e+00 1.0000000000e+00 2.0000000000e+00 9.4111571987e-01 1.4634620698e-01 3.0476874761e-01 -0.0000000000e+00
1103 1.0000000000e+00 1.0000000000e+00 2.0000000000e+00 9.0550634193e-01 -3.9177232763e-01 1.6301137394e-01 0.0000000000e+00
1104 1.0000000000e+00 1.0000000000e+00 2.0000000000e+00 6.1373964424e-01 1.4963348073e-01 -7.7519898770e-01 0.0000000000e+00
1105 1.0000000000e+00 1.0000000000e+00 2.0000000000e+00 6.5388815076e-01 -4.5946399746e-01 -6.0110158986e-01 0.0000000000e+00
1106 1.0000000000e+00 1.0000000000e+00 2.0000000000e+00 5.2021922384e-01 8.4613370549e-01 1.1588663245e-01 -0.0000000000e+00
1107 1.0000000000e+00 1.0000000000e+00 2.0000000000e+00 6.6479809730e-01 -6.8515997112e-01 2.9765635185e-01 0.0000000000e+00
1108 1.0000000000e+00 1.0000000000e+00 2.0000000000e+00 3.2993497282e-01 9.8726635535e-02 -9.3882690905e-01 0.0000000000e+00
1109 1.0000000000e+00 1.0000000000e+00 2.0000000000e+00 6.8126207301e-01 -7.2480357592e-01 1.0267309386e-01 0.0000000000e+00
1110 1.0000000000e+00 1.0000000000e+00 2.0000000000e+00 9.9891187498e-01 -2.4274897454e-02 3.9822046321e-02 0.0000000000e+00
1111 1.0000000000e+00 1.0000000000e+00 2.0000000000e+00 9.9019892273e-01 8.7203378638e-02 1.0909474866e-01 -0.0000000000e+00
1112 1.0000000000e+00 1.0000000000e+00 2.0000000000e+00 4.7807868621e-02 1.2637811514e-01 9.9082944027e-01 -0.0000000000e+00
1113 1.0000000000e+00 1.0000000000e+00 2.0000000000e+00 5.8486917446e-01 1.4459756596e-01 7.9813507170e-01 -0.0000000000e+00
1114 1.0000000000e+00 1.0000000000e+00 2.0000000000e+00 1.1532192083e-01 -8.1596854579e-01 5.6647699587e-01 0.0000000000e+00
1115 1.0000000000e+00 1.0000000000e+00 2.0000000000e+00 9.8481560735e-01 3.6411318710e-02 1.6974226165e-01 -0.0000000000e+00
1116 1.0000000000e+00 1.0000000000e+00 2.0000000000e+00 8.3158096306e-01 -4.3018444158e-01 3.5130392553e-01 0.0000000000e+00
1117 1.0000000000e+00 1.0000000000e+00 2.0000000000e+00 8.5070989025e-01 -5.2381579446e-01 -4.3700069883e-02 0.0000000000e+00
1118 1.0000000000e+00 1.0000000000e+00 2.0000000000e+00 9.3277387973e-01 3.2309443486e-01 -1.5982138611e-01 0.0000000000e+00
1119 1.0000000000e+00 1.0000000000e+00 2.0000000000e+00 5.8647463888e-01 -2.5134726822e-01 7.6998184960e-01 0.0000000000e+00
1120 1.0000000000e+00 1.0000000000e+00 2.0000000000e+00 7.9181142796e-01 2.9243984066e-01 -5.3620294866e-01 0.0000000000e+00
1121 1.0000000000e+00 1.0000000000e+00 2.0000000000e+00 6.4938366173e-01 1.0897341444e-01 7.5261255292e-01 -0.0000000000e+00
1122 1.0000000000e+00 1.0000000000e+00 2.0000000000e+00 2.4553147145e-01 -9.6542208667e-01 8.7604172784e-02 0.0000000000e+00
1123 1.0000000000e+00 1.0000000000e+00 2.0000000000e+00 9.9275428932e-01 -1.1973330809e-01 1.0141793041e-02 0.0000000000e+00
1124 1.0000000000e+00 1.0000000000e+00 2.0000000000e+00 6.7179071351e-01 -7.3961436354e-01 4.0839080359e-02 0.0000000000e+00
1125 1.0000000000e+00 1.0000000000e+00 2.0000000000e+00 9.9645957647e-01 -6.5694794948e-02 -5.2464334267e-02 0.0000000000e+00
1126 1.0000000000e+00 1.0000000000e+00 2.0000000000e+00 8.6111966843e-01 -1.2233620977e-01 -4.9346404978e-01 0.0000000000e+00
1127 1.0000000000e+00 1.0000000000e+00 2.0000000000e+00 2.5279805670e-01 -3.9626963308e-01 -8.8264575025e-01 0.0000000000e+00
1128 1.0000000000e+00 1.0000000000e+00 2.0000000000e+00 9.3114143927e-01 -3.3057236074e-01 -1.5394003501e-01 0.0000000000e+00
1129 1.0000000000e+00 1.0000000000e+00 2.0000000000e+00 7.7027076852e-01 -6.3605345096e-01 -4.6032061495e-02 0.0000000000e+00
1130 1.0000000000e+00 1.0000000000e+00 2.0000000000e+00 9.6597046150e-01 2.2638884027e-01 1.2509660474e-01 -0.0000000000e+00
1131 1.0000000000e+00 1.0000000000e+00 2.0000000000e+00 7.4640790341e-01 6.1031943326e-01 2.6530252754e-01 -0.0000000000e+00
1132 1.0000000000e+00 1.0000000000e+00 2.0000000000e+00 2.4178944296e-01 7.5182573022e-01 6.1342965094e-01 -0.0000000000e+00
1133 1.0000000000e+00 1.0000000000e+00 2.0000000000e+00 8.1509514084e-01 5.6829488730e-01 -1.1252036463e-01 0.0000000000e+00
1134 1.0000000000e+00 1.0000000000e+00 2.0000000000e+00 8.7197739302e-01 4.0778179583e-01 -2.7086792548e-01 0.0000000000e+00
1135 1.0000000000e+00 1.0000000000e+00 2.0000000000e+00 7.7382172114e-01 6.2550115110e-01 9.9740933743e-02 -0.0000000000e+00
1136 1.0000000000e+00 1.0000000000e+00 2.0000000000e+00 8.4529365949e-01 3.8322006155e-01 3.7231843045e-01 -0.0000000000e+00
1137 1.0000000000e+00 1.0000000000e+00 2.0000000000e+00 1.4517508748e-01 9.7802538901e-01 -1.4963466318e-01 0.0000000000e+00
1138 1.0000000000e+00 1.0000000000e+00 2.0000000000e+00 8.4374653997e-01 2.0397705540e-01 4.9647269529e-01 -0.0000000000e+00
1139 1.0000000000e+00 1.0000000000e+00 2.0000000000e+00 3.4220421679e-01 7.5856298185e-01 5.5450741797e-01 -0.0000000000e+00
1140 1.0000000000e+00 1.0000000000e+00 2.0000000000e+00 8.7382331428e-01 -4.1757168847e-01 2.4913189360e-01 0.0000000000e+00
1141 1.0000000000e+00 1.0000000000e+00 2.0000000000e+00 8.3886409973e-01 -4.2134825317e-01 -3.4463411283e-01 0.0000000000e+00
1142 1.0000000000e+00 1.0000000000e+00 2.0000000000e+00 5.3288164288e-01 -4.4242118395e-01 -7.2131868871e-01 0.0000000000e+00
1143 1.0000000000e+00 1.0000000000e+00 2.0000000000e+00 9.4295670138e-01 -2.9991461260e-01 1.4451257552e-01 0.0000000000e+00
1144 1.0000000000e+00 1.0000000000e+00 2.0000000000e+00 7.0118714800e-01 -3.5112873765e-01 -6.2052009885e-01 0.0000000000e+00
1145 1.0000000000e+00 1.0000000000e+00 2.0000000000e+00 7.4236727799e-01 5.1451861637e-01 4.2914032434e-01 -0.0000000000e+00
1146 1.0000000000e+00 1.0000000000e+00 2.0000000000e+00 3.4273535675e-01 -5.6952634360e-01 -7.4710924180e-01 0.0000000000e+00
1147 1.0000000000e+00 1.0000000000e+00 2.0000000000e+00 7.2226494514e-01 1.4689931583e-01 6.7583573451e-01 -0.0000000000e+00
1148 1.0000000000e+00 1.0000000000e+00 2.0000000000e+00 3.0801030999e-01 3.8834948724e-01 8.6851270843e-01 -0.0000000000e+00
1149 1.0000000000e+00 1.0000000000e+00 2.0000000000e+00 6.6758517110e-01 -4.2800164734e-01 6.0921640589e-01 0.0000000000e+00
1150 1.0000000000e+00 1.0000000000e+00 2.0000000000e+00 2.9102729878e-01 9.1387136658e-01 -2.8309404217e-01 0.0000000000e+00
1151 1.0000000000e+00 1.0000000000e+00 2.0000000000e+00 4.1909218447e-01 -8.5715809607e-01 -2.9940230338e-01 0.0000000000e+00
1152 1.0000000000e+00 1.0000000000e+00 2.0000000000e+00 7.5981258906e-01 6.2002816913e-01 -1.9557581392e-01 0.0000000000e+00
1153 1.0000000000e+00 1.0000000000e+00 2.0000000000e+00 1.1467627766e-01 -7.5841161804e-01 -6.4160826753e-01 0.0000000000e+00
1154 1.0000000000e+00 1.0000000000e+00 2.0000000000e+00 7.3770554631e-01 6.3301468556e-01 2.3469753899e-01 -0.0000000000e+00
1155 1.0000000000e+00 1.0000000000e+00 2.0000000000e+00 9.0604892813e-01 -1.0539701622e-01 -4.0983753952e-01 0.0000000000e+00
1156 1.0000000000e+00 1.0000000000e+00 2.0000000000e+00 3.5786277454e-01 5.7638687898e-01 -7.3465120999e-01 0.0000000000e+00
1157 1.0000000000e+00 1.0000000000e+00 2.0000000000e+00 3.0028389229e-01 9.4009769908e-01 -1.6138742272e-01 0.0000000000e+00
1158 1.0000000000e+00 1.0000000000e+00 2.0000000000e+00 7.6610788379e-01 5.6898480068e-01 2.9888962342e-01 -0.0000000000e+00
1159 1.0000000000e+00 1.0000000000e+00 2.0000000000e+00 9.1615866287e-01 1.9365067313e-01 -3.5093122011e-01 0.0000000000e+00
1160 1.0000000000e+00 1.0000000000e+00 2.0000000000e+00 4.7384155588e-01 -8.7331514289e-01 -1.1311428344e-01 0.0000000000e+00
1161 1.0000000000e+00 1.0000000000e+00 2.0000000000e+00 6.8052436951e-01 -3.0147794210e-01 -6.6783054207e-01 0.0000000000e+00
1162 1.0000000000e+00 1.0000000000e+00 2.0000000000e+00 5.2885452131e-01 6.2109356055e-01 5.7840788751e-01 -0.0000000000e+00
1163 1.0000000000e+00 1.0000000000e+00 2.0000000000e+00 7.4996929506e-01 -6.5966742551e-01 -4.8835890330e-02 0.0000000000e+00
1164 1.0000000000e+00 1.0000000000e+00 2.0000000000e+00 2.7198520727e-01 3.0054652397e-01 9.1416400823e-01 -0.0000000000e+00
1165 1.0000000000e+00 1.0000000000e+00 2.0000000000e+00 4.0274236238e-01 3.5010460895e-01 8.4570996940e-01 -0.0000000000e+00
1166 1.0000000000e+00 1.0000000000e+00 2.0000000000e+00 7.1964063842e-01 6.9262194843e-01 -4.8909999975e-02 0.0000000000e+00
1167 1.0000000000e+00 1.0000000000e+00 2.0000000000e+00 9.5472762774e-01 -1.2900788223e-01 2.6805246343e-01 0.0000000000e+00
1168 1.0000000000e+00 1.0000000000e+00 2.0000000000e+00 6.0525823943e-01 5.8698804821e-01 5.3768717193e-01 -0.0000000000e+00
1169 1.0000000000e+00 1.0000000000e+00 2.0000000000e+00 4.0293017038e-01 -5.5170413859e-01 -7.3025325830e-01 0.0000000000e+00
1170 1.0000000000e+00 1.0000000000e+00 2.0000000000e+00 9.3250645789e-01 2.9052155162e-01 2.1454354810e-01 -0.0000000000e+00
1171 1.0000000000e+00 1.0000000000e+00 2.0000000000e+00 8.3217502145e-01 4.8924117227e-01 -2.6101304378e-01 0.0000000000e+00
1172 1.0000000000e+00 1.0000000000e+00 2.0000000000e+00 6.0133198587e-01 4.2633811718e-01 -6.7574821687e-01 0.0000000000e+00
1173 1.0000000000e+00 1.0000000000e+00 2.0000000000e+00 8.9543680260e-01 -4.2022594854e-01 1.4697987861e-01 0.0000000000e+00
1174 1.0000000000e+00 1.0000000000e+00 2.0000000000e+00 7.3137307567e-01 -4.5716362266e-01 -5.0605814518e-01 0.0000000000e+00
1175 1.0000000000e+00 1.0000000000e+00 2.0000000000e+00 9.7173918990e-01 -1.0507352377e-01 2.1138235832e-01 0.0000000000e+00
1176 1.0000000000e+00 1.0000000000e+00 2.0000000000e+00 1.7228319833e-01 -6.8826300727e-01 -7.0470740907e-01 0.0000000000e+00
1177 1.0000000000e+00 1.0000000000e+00 2.0000000000e+00 9.0437200674e-01 -1.8099706476e-01 3.8646000565e-01 0.0000000000e+00
1178 1.0000000000e+00 1.0000000000e+00 2.0000000000e+00 7.3126051825e-01 3.6394233992e-01 5.7689169492e-01 -0.0000000000e+00
1179 1.0000000000e+00 1.0000000000e+00 2.0000000000e+00 6.9899566465e-01 6.1324295778e-01 3.6788331783e-01 -0.0000000000e+00
1180 1.0000000000e+00 1.0000000000e+00 2.0000000000e+00 4.0870790899e-01 -4.7185273216e-01 -7.8122521994e-01 0.0000000000e+00
1181 1.0000000000e+00 1.0000000000e+00 2.0000000000e+00 8.3193005946e-01 -4.0003236032e-01 3.8453411664e-01 0.0000000000e+00
1182 1.0000000000e+00 1.0000000000e+00 2.0000000000e+00 8.8600387496e-01 -4.6367722352e-01 -7.5228723941e-04 0.0000000000e+00
1183 1.0000000000e+00 1.0000000000e+00 2.0000000000e+00 3.0912911406e-01 -6.4488817659e-01 6.9896954907e-01 0.0000000000e+00
1184 1.0000000000e+00 1.0000000000e+00 2.0000000000e+00 6.8204993252e-01 5.5501588464e-01 -4.7619875823e-01 0.0000000000e+00
1185 1.0000000000e+00 1.0000000000e+00 2.0000000000e+00 8.2024870010e-01 5.3212340755e-01 -2.0984934864e-01 0.0000000000e+00
1186 1.0000000000e+00 1.0000000000e+00 2.0000000000e+00 9.6166881343e-01 5.6327151250e-02 -2.6836606588e-01 0.0000000000e+00
1187 1.0000000000e+00 1.0000000000e+00 2.0000000000e+00 5.8084354267e-01 5.6053915574e-01 5.9026827275e-01 -0.0000000000e+00
1188 1.0000000000e+00 1.0000000000e+00 2.0000000000e+00 4.2756561316e-01 -7.8128816980e-01 4.5472677751e-01 0.0000000000e+00
1189 1.0000000000e+00 1.0000000000e+00 2.0000000000e+00 4.4028492746e-01 5.9834240200e-01 -6.6942927380e-01 0.0000000000e+00
1190 1.0000000000e+00 1.0000000000e+00 2.0000000000e+00 6.7867784002e-01 -6.9681786949e-01 2.3203716560e-01 0.0000000000e+00
1191 1.0000000000e+00 1.0000000000e+00 2.0000000000e+00 2.9165811566e-01 9.5494770163e-01 5.4867392053e-02 -0.0000000000e+00
1192 1.0000000000e+00 1.0000000000e+00 2.0000000000e+00 7.6752569464e-01 3.3421821319e-02 6.4014630353e-01 -0.0000000000e+00
1193 1.0000000000e+00 1.0000000000e+00 2.0000000000e+00 8.4018544910e-01 -1.8803682478e-03 -5.4229592966e-01 0.0000000000e+00
1194 1.0000000000e+00 1.0000000000e+00 2.0000000000e+00 7.9095213932e-01 -6.1119335743e-01 -2.8937745829e-02 0.0000000000e+00
1195 1.0000000000e+00 1.0000000000e+00 2.0000000000e+00 6.2689923850e-01 6.2658164427e-01 4.6302568808e-01 -0.0000000000e+00
1196 1.0000000000e+00 1.0000000000e+00 2.0000000000e+00 3.9126812662e-01 -9.1419657675e-01 -1.0561189402e-01 0.0000000000e+00
1197 1.0000000000e+00 1.0000000000e+00 2.0000000000e+00 8.6121640297e-01 3.5490641024e-01 -3.6379629908e-01 0.0000000000e+00
1198 1.0000000000e+00 1.0000000000e+00 2.0000000000e+00 8.3547021887e-01 -5.7689993316e-02 -5.4649920224e-01 0.0000000000e+00
1199 1.0000000000e+00 1.0000000000e+00 2.0000000000e+00 5.4878554485e-01 -4.5247242578e-01 -7.0292469701e-01 0.0000000000e+00
1200 1.0000000000e+00 1.0000000000e+00 2.0000000000e+00 6.5868361894e-01 -1.3729883167e-01 -7.3978707812e-01 0.0000000000e+00
1201 1.0000000000e+00 1.0000000000e+00 2.0000000000e+00 6.1225742706e-01 7.8916900135e-01 -4.8509074576e-02 0.0000000000e+00
1202 1.0000000000e+00 1.0000000000e+00 2.0000000000e+00 7.2947775338e-01 -4.2558680648e-01 5.3547929696e-01 0.0000000000e+00
1203 1.0000000000e+00 1.0000000000e+00 2.0000000000e+00 9.3054265040e-01 1.3367915494e-01 3.4091092580e-01 -0.0000000000e+00
1204 1.0000000000e+00 1.0000000000e+00 2.0000000000e+00 4.2536873114e-01 2.7807844654e-01 8.6123969958e-01 -0.0000000000e+00
1205 1.0000000000e+00 1.0000000000e+00 2.0000000000e+00 8.3971722442e-01 -5.2791588251e-01 -1.2719985849e-01 0.0000000000e+00
1206 1.0000000000e+00 1.0000000000e+00 2.0000000000e+00 7.3802226932e-01 6.0024098224e-01 3.0827567732e-01 -0.0000000000e+00
1207 1.0000000000e+00 1.0000000000e+00 2.0000000000e+00 8.0277984612e-01 4.1905928745e-01 -4.2418608212e-01 0.0000000000e+00
1208 1.0000000000e+00 1.0000000000e+00 2.0000000000e+00 7.7810738346e-01 3.5951077815e-01 5.1507368424e-01 -0.0000000000e+00
1209 1.0000000000e+00 1.0000000000e+00 2.0000000000e+00 9.6621849884e-01 2.5772295799e-01 8.3031172950e-04 -0.0000000000e+00
1210 1.0000000000e+00 1.0000000000e+00 2.0000000000e+00 6.0544581196e-01 -7.7827870897e-01 1.6648609536e-01 0.0000000000e+00
1211 1.0000000000e+00 1.0000000000e+00 2.0000000000e+00 8.0344839757e-01 -5.9535358447e-01 -4.9781423058e-03 0.0000000000e+00
1212 1.0000000000e+00 1.0000000000e+00 2.0000000000e+00 6.5537430994e-01 -4.9100572675e-01 5.7393195604e-01 0.0000000000e+00
1213 1.0000000000e+00 1.0000000000e+00 2.0000000000e+00 3.2315383137e-01 1.6220780838e-01 -9.3234126165e-01 0.0000000000e+00
1214 1.0000000000e+00 1.0000000000e+00 2.0000000000e+00 8.4418075662e-01 -5.2374563017e-01 1.1423381741e-01 0.0000000000e+00
1215 1.0000000000e+00 1.0000000000e+00 2.0000000000e+00 3.2446835269e-01 8.9751074800e-01 2.9865489335e-01 -0.0000000000e+00
1216 1.0000000000e+00 1.0000000000e+00 2.0000000000e+00 5.3732710669e-01 -4.4217032843e-01 7.1816779451e-01 0.0000000000e+00
1217 1.0000000000e+00 1.0000000000e+00 2.0000000000e+00 6.6227325352e-01 7.2535639358e-01 1.8775579878e-01 -0.0000000000e+00
1218 1.0000000000e+00 1.0000000000e+00 2.0000000000e+00 8.4316837284e-01 2.2624039039e-01 4.8773187388e-01 -0.0000000000e+00
1219 1.0000000000e+00 1.0000000000e+00 2.0000000000e+00 7.6913182862e-01 2.3072380030e-01 5.9598889098e-01 -0.0000000000e+00
1220 1.0000000000e+00 1.0000000000e+00 2.0000000000e+00 7.0467486625e-01 5.9563712263e-01 -3.8555123009e-01 0.0000000000e+00
1221 1.0000000000e+00 1.0000000000e+00 2.0000000000e+00 8.4188884519e-01 -4.5771125225e-02 -5.3770640356e-01 0.0000000000e+00
1222 1.0000000000e+00 1.0000000000e+00 2.0000000000e+00 4.9031171243e-01 -5.8727330382e-01 -6.4397553624e-01 0.0000000000e+00
1223 1.0000000000e+00 1.0000000000e+00 2.0000000000e+00 8.1087699708e-01 5.4668764426e-01 -2.0883274461e-01 0.0000000000e+00
1224 1.0000000000e+00 1.0000000000e+00 2.0000000000e+00 6.8718543706e-02 7.5323098637e-01 -6.5415658899e-01 0.0000000000e+00
1225 1.0000000000e+00 1.0000000000e+00 2.0000000000e+00 6.0956331155e-01 -8.5295628506e-03 7.9269150101e-01 0.0000000000e+00
1226 1.0000000000e+00 1.0000000000e+00 2.0000000000e+00 3.7804261853e-01 9.1916367493e-01 1.1055278041e-01 -0.0000000000e+00
1227 1.0000000000e+00 1.0000000000e+00 2.0000000000e+00 9.2505895412e-01 -2.8897177712e-01 2.4649795825e-01 0.0000000000e+00
1228 1.0000000000e+00 1.0000000000e+00 2.0000000000e+00 4.3952027324e-01 2.4591212846e-01 -8.6391501578e-01 0.0000000000e+00
1229 1.0000000000e+00 1.0000000000e+00 2.0000000000e+00 9.1618614680e-01 -3.9738289679e-01 5.1863067281e-02 0.0000000000e+00
1230 1.0000000000e+00 1.0000000000e+00 2.0000000000e+00 9.3254027690e-01 -3.6083789644e-01 1.2831385679e-02 0.0000000000e+00
1231 1.0000000000e+00 1.0000000000e+00 2.0000000000e+00 7.8711647880e-01 1.7704394930e-01 -5.9084946375e-01 0.0000000000e+00
1232 1.0000000000e+00 1.0000000000e+00 2.0000000000e+00 9.9356053884e-01 -1.1064427918e-01 2.4398753071e-02 0.0000000000e+00
1233 1.0000000000e+00 1.0000000000e+00 2.0000000000e+00 9.1812574264e-01 1.0390928219e-02 -3.9615293676e-01 0.0000000000e+00
1234 1.0000000000e+00 1.0000000000e+00 2.0000000000e+00 1.3262505119e-01 -4.0908986020e-01 9.0280456472e-01 0.0000000000e+00
1235 1.0000000000e+00 1.0000000000e+00 2.0000000000e+00 6.0622640404e-01 -7.5713518273e-01 -2.4338418627e-01 0.0000000000e+00
1236 1.0000000000e+00 1.0000000000e+00 2.0000000000e+00 9.8132636144e-01 1.3927707641e-01 1.3266675670e-01 -0.0000000000e+00
1237 1.0000000000e+00 1.0000000000e+00 2.0000000000e+00 8.0215720184e-01 1.8761673987e-01 -5.6687192774e-01 0.0000000000e+00
1238 1.0000000000e+00 1.0000000000e+00 2.0000000000e+00 7.4867098180e-01 -8.6357134697e-02 -6.5729309010e-01 0.0000000000e+00
1239 1.0000000000e+00 1.0000000000e+00 2.0000000000e+00 6.0693722487e-01 7.9153741588e-01 7.1384342348e-02 -0.0000000000e+00
1240 1.0000000000e+00 1.0000000000e+00 2.0000000000e+00 4.2628351770e-01 6.6903894022e-01 6.0882613200e-01 -0.0000000000e+00
1241 1.0000000000e+00 1.0000000000e+00 2.0000000000e+00 7.5501803772e-01 6.4202935235e-01 -1.3321438902e-01 0.0000000000e+00
1242 1.0000000000e+00 1.0000000000e+00 2.0000000000e+00 7.4122280859e-01 6.7124712947e-01 4.0048972034e-03 -0.0000000000e+00
1243 1.0000000000e+00 1.0000000000e+00 2.0000000000e+00 9.6292653317e-01 -2.4590861578e-01 -1.1091187670e-01 0.0000000000e+00
1244 1.0000000000e+00 1.0000000000e+00 2.0000000000e+00 8.4608807115e-01 1.8422148119e-01 -5.0019738276e-01 0.0000000000e+00
1245 1.0000000000e+00 1.0000000000e+00 2.0000000000e+00 4.9055707526e-01 -1.3447496358e-01 -8.6097052219e-01 0.0000000000e+00
1246 1.0000000000e+00 1.0000000000e+00 2.0000000000e+00 4.8791964186e-01 -8.7225663180e-01 3.3208302736e-02 0.0000000000e+00
1247 1.0000000000e+00 1.0000000000e+00 2.0000000000e+00 8.7982709778e-01 5.9185714459e-02 4.7159445418e-01 -0.0000000000e+00
1248 1.0000000000e+00 1.0000000000e+00 2.0000000000e+00 8.1302780230e-01 -5.7945605180e-01 -5.6713990463e-02 0.0000000000e+00
1249 1.0000000000e+00 1.0000000000e+00 2.0000000000e+00 9.8179260096e-01 -1.8989882506e-01 -4.6610021807e-03 0.0000000000e+00
1250 1.0000000000e+00 1.0000000000e+00 2.0000000000e+00 4.7807823102e-01 -7.7601895705e-01 4.1138276984e-01 0.0000000000e+00
1251 1.0000000000e+00 1.0000000000e+00 2.0000000000e+00 9.3212457634e-01 -3.3599845114e-01 -1.3508817500e-01 0.0000000000e+00
1252 1.0000000000e+00 1.0000000000e+00 2.0000000000e+00 6.3892247349e-01 7.1093837522e-01 2.9384468605e-01 -0.0000000000e+00
1253 1.0000000000e+00 1.0000000000e+00 2.0000000000e+00 2.1649308650e-01 -2.8767016416e-01 9.3293977306e-01 0.0000000000e+00
1254 1.0000000000e+00 1.0000000000e+00 2.0000000000e+00 8.9644837617e-01 4.4213596118e-01 2.9934940926e-02 -0.0000000000e+00
1255 1.0000000000e+00 1.0000000000e+00 2.0000000000e+00 8.1825203945e-02 -2.0281790534e-01 9.7579174688e-01 0.0000000000e+00
1256 1.0000000000e+00 1.0000000000e+00 2.0000000000e+00 9.4195490373e-01 -1.9350598965e-02 -3.3518131461e-01 0.0000000000e+00
1257 1.0000000000e+00 1.0000000000e+00 2.0000000000e+00 6.9593651312e-01 7.1556599559e-01 6.0313146677e-02 -0.0000000000e+00
1258 1.0000000000e+00 1.0000000000e+00 2.0000000000e+00 7.2982797995e-01 -4.8159926570e-01 -4.8519405083e-01 0.0000000000e+00
1259 1.0000000000e+00 1.0000000000e+00 2.0000000000e+00 5.8585588007e-01 8.0625820836e-01 8.1979200032e-02 -0.0000000000e+00
1260 1.0000000000e+00 1.0000000000e+00 2.0000000000e+00 3.7834237639e-01 -8.6984734270e-01 -3.1657960552e-01 0.0000000000e+00
1261 1.0000000000e+00 1.0000000000e+00 2.0000000000e+00 7.9447702552e-01 5.1005513631e-03 6.0727278903e-01 -0.0000000000e+00
1262 1.0000000000e+00 1.0000000000e+00 2.0000000000e+00 5.5664349659e-01 -7.8682165788e-01 -2.6657024666e-01 0.0000000000e+00
1263 1.0000000000e+00 1.0000000000e+00 2.0000000000e+00 6.4648445267e-01 -5.5112038609e-01 -5.2756437758e-01 0.0000000000e+00
1264 1.0000000000e+00 1.0000000000e+00 2.0000000000e+00 4.9995283091e-01 -4.7247161457e-01 7.2582211340e-01 0.0000000000e+00
1265 1.0000000000e+00 1.0000000000e+00 2.0000000000e+00 4.4018457111e-01 6.4466126179e-01 6.2501952041e-01 -0.0000000000e+00
1266 1.0000000000e+00 1.0000000000e+00 2.0000000000e+00 7.3627493106e-01 4.1008248593e-01 -5.3826720189e-01 0.0000000000e+00
1267 1.0000000000e+00 1.0000000000e+00 2.0000000000e+00 8.9206266383e-01 -6.6888357268e-03 4.5186221714e-01 0.0000000000e+00
1268 1.0000000000e+00 1.0000000000e+00 2.0000000000e+00 7.0755627976e-01 6.8696755123e-01 -1.6564931190e-01 0.0000000000e+00
1269 1.0000000000e+00 1.0000000000e+00 2.0000000000e+00 6.7890367077e-01 7.1763708712e-01 -1.5519928156e-01 0.0000000000e+00
1270 1.0000000000e+00 1.0000000000e+00 2.0000000000e+00 6.6046100505e-01 -7.3095891000e-01 1.7172749547e-01 0.0000000000e+00
1271 1.0000000000e+00 1.0000000000e+00 2.0000000000e+00 4.4451424528e-01 4.5470517794e-01 7.7178383431e-01 -0.0000000000e+00
1272 1.0000000000e+00 1.0000000000e+00 2.0000000000e+00 9.7533672747e-01 -6.9460798614e-02 -2.0950767409e-01 0.0000000000e+00
1273 1.0000000000e+00 1.0000000000e+00 2.0000000000e+00 8.5132722294e-01 -4.4111962531e-01 -2.8399900643e-01 0.0000000000e+00
1274 1.0000000000e+00 1.0000000000e+00 2.0000000000e+00 8.1260622679e-01 -5.8166884604e-01 3.6503064483e-02 0.0000000000e+00
1275 1.0000000000e+00 1.0000000000e+00 2.0000000000e+00 7.9840687128e-01 -1.9366316555e-01 5.7012371132e-01 0.0000000000e+00
1276 1.0000000000e+00 1.0000000000e+00 2.0000000000e+00 9.2898554053e-01 -2.4023843519e-02 3.6933551200e-01 0.0000000000e+00
1277 1.0000000000e+00 1.0000000000e+00 2.0000000000e+00 3.1501159559e-01 9.3533257292e-01 1.6099898348e-01 -0.0000000000e+00
1278 1.0000000000e+00 1.0000000000e+00 2.0000000000e+00 9.9509547219e-01 7.7955247471e-02 6.0893190228e-02 -0.0000000000e+00
1279 1.0000000000e+00 1.0000000000e+00 2.0000000000e+00 9.9561672598e-01 -8.0694510673e-02 4.7283516058e-02 0.0000000000e+00
1280 1.0000000000e+00 1.0000000000e+00 2.0000000000e+00 9.9438028707e-01 1.4484740097e-02 1.0487152612e-01 -0.0000000000e+00
1281 1.0000000000e+00 1.0000000000e+00 2.0000000000e+00 1.1715694001e-01 -5.0436557359e-01 8.5550547607e-01 0.0000000000e+00
1282 1.0000000000e+00 1.0000000000e+00 2.0000000000e+00 9.5569078147e-01 -2.7727246160e-01 9.8869167375e-02 0.0000000000e+00
1283 1.0000000000e+00 1.0000000000e+00 2.0000000000e+00 8.7900766870e-01 -3.0913133429e-01 -3.6301974675e-01 0.0000000000e+00
1284 1.0000000000e+00 1.0000000000e+00 2.0000000000e+00 6.2491088187e-01 -7.7194271520e-01 -1.1657973311e-01 0.0000000000e+00
1285 1.0000000000e+00 1.0000000000e+00 2.0000000000e+00 8.7265385064e-01 -4.6691400550e-01 1.4306141489e-01 0.0000000000e+00
1286 1.0000000000e+00 1.0000000000e+00 2.0000000000e+00 3.7819788467e-01 5.4959271665e-01 -7.4492563779e-01 0.0000000000e+00
1287 1.0000000000e+00 1.0000000000e+00 2.0000000000e+00 8.3920509522e-01 3.5021420878e-01 4.1603463334e-01 -0.0000000000e+00
1288 1.0000000000e+00 1.0000000000e+00 2.0000000000e+00 7.3464534158e-01 -1.9633583462e-01 6.4942163664e-01 0.0000000000e+00
1289 1.0000000000e+00 1.0000000000e+00 2.0000000000e+00 9.2664445967e-01 3.0425346350e-01 2.2081638371e-01 -0.0000000000e+00
1290 1.0000000000e+00 1.0000000000e+00 2.0000000000e+00 4.2633232306e-01 1.7383465892e-01 8.8770617981e-01 -0.0000000000e+00
1291 1.0000000000e+00 1.0000000000e+00 2.0000000000e+00 9.6527136052e-01 -4.5938169807e-02 -2.5717870269e-01 0.0000000000e+00
1292 1.0000000000e+00 1.0000000000e+00 2.0000000000e+00 7.0841067398e-01 -2.7509966987e-02 7.0526414818e-01 0.0000000000e+00
1293 1.0000000000e+00 1.0000000000e+00 2.0000000000e+00 9.7687517639e-01 1.0386155014e-01 -1.8688945438e-01 0.0000000000e+00
1294 1.0000000000e+00 1.0000000000e+00 2.0000000000e+00 5.1694271099e-01 6.5625756424e-01 -5.4963282556e-01 0.0000000000e+00
1295 1.0000000000e+00 1.0000000000e+00 2.0000000000e+00 3.7771652635e-01 -2.1805105254e-01 -8.9987997211e-01 0.0000000000e+00
1296 1.0000000000e+00 1.0000000000e+00 2.0000000000e+00 8.7870534743e-01 4.6625567954e-01 -1.0238434299e-01 0.0000000000e+00
1297 1.0000000000e+00 1.0000000000e+00 2.0000000000e+00 9.3923816834e-01 -3.1850366946e-01 1.2801201375e-01 0.0000000000e+00
1298 1.0000000000e+00 1.0000000000e+00 2.0000000000e+00 8.7632507084e-01 -1.9791784341e-01 4.3918435478e-01 0.0000000000e+00
1299 1.0000000000e+00 1.0000000000e+00 2.0000000000e+00 8.9361461877e-01 -1.8961498088e-03 4.4883105702e-01 0.0000000000e+00
1300 1.0000000000e+00 1.0000000000e+00 2.0000000000e+00 5.9012162070e-01 5.7426621633e-01 5.6742822063e-01 -0.0000000000e+00
1301 1.0000000000e+00 1.0000000000e+00 2.0000000000e+00 9.5026316297e-01 -2.8731274024e-02 3.1012003321e-01 0.0000000000e+00
1302 1.0000000000e+00 1.0000000000e+00 2.0000000000e+00 7.9313219364e-01 -5.7923384743e-01 -1.8822718559e-01 0.0000000000e+00
1303 1.0000000000e+00 1.0000000000e+00 2.0000000000e+00 6.9576420092e-01 -4.0023366329e-01 5.9642702109e-01 0.0000000000e+00
1304 1.0000000000e+00 1.0000000000e+00 2.0000000000e+00 5.6223276017e-01 7.3878395686e-01 3.7160811143e-01 -0.0000000000e+00
1305 1.0000000000e+00 1.0000000000e+00 2.0000000000e+00 8.5667514073e-01 -4.9496286206e-01 -1.4532538815e-01 0.0000000000e+00
1306 1.0000000000e+00 1.0000000000e+00 2.0000000000e+00 7.2282731224e-01 4.7723768929e-01 4.9976480929e-01 -0.0000000000e+00
1307 1.0000000000e+00 1.0000000000e+00 2.0000000000e+00 3.7939060994e-01 6.4685276747e-01 6.6154687083e-01 -0.0000000000e+00
1308 1.0000000000e+00 1.0000000000e+00 2.0000000000e+00 2.2200807874e-01 -6.5744298850e-01 7.2005633797e-01 0.0000000000e+00
1309 1.0000000000e+00 1.0000000000e+00 2.0000000000e+00 3.4997013421e-01 -2.7859584471e-01 8.9437422843e-01 0.0000000000e+00
1310 1.0000000000e+00 1.0000000000e+00 2.0000000000e+00 6.3022744903e-01 6.4699785615e-01 -4.2919358876e-01 0.0000000000e+00
1311 1.0000000000e+00 1.0000000000e+00 2.0000000000e+00 9.9241725392e-01 3.0376697213e-02 -1.1910184876e-01 0.0000000000e+00
1312 1.0000000000e+00 1.0000000000e+00 2.0000000000e+00 8.2513464560e-01 4.5514951836e-01 3.3465165854e-01 -0.0000000000e+00
1313 1.0000000000e+00 1.0000000000e+00 2.0000000000e+00 9.1914347867e-01 -3.8897652033e-01 6.2229673437e-02 0.0000000000e+00
1314 1.0000000000e+00 1.0000000000e+00 2.0000000000e+00 7.4808049928e-01 4.2199659797e-01 -5.1214689094e-01 0.0000000000e+00
1315 1.0000000000e+00 1.0000000000e+00 2.0000000000e+00 9.4680521010e-01 4.8787816762e-02 -3.1808747707e-01 0.0000000000e+00
1316 1.0000000000e+00 1.0000000000e+00 2.0000000000e+00 8.2384379482e-01 5.5250795790e-01 1.2655575135e-01 -0.0000000000e+00
1317 1.0000000000e+00 1.0000000000e+00 2.0000000000e+00 1.8174161491e-01 8.8442082939e-01 -4.2984855699e-01 0.0000000000e+00
1318 1.0000000000e+00 1.0000000000e+00 2.0000000000e+00 9.6320454239e-01 -1.8206484236e-01 1.9771040107e-01 0.0000000000e+00
1319 1.0000000000e+00 1.0000000000e+00 2.0000000000e+00 4.7632261497e-01 -7.6320030484e-01 4.3662576785e-01 0.0000000000e+00
1320 1.0000000000e+00 1.0000000000e+00 2.0000000000e+00 8.4570372285e-01 -4.7076112986e-01 2.5133478026e-01 0.0000000000e+00
1321 1.0000000000e+00 1.0000000000e+00 2.0000000000e+00 8.5335454387e-01 -4.1346940386e-01 -3.1753594210e-01 0.0000000000e+00
1322 1.0000000000e+00 1.0000000000e+00 2.0000000000e+00 7.4825737821e-01 -1.4995259634e-01 6.4623920866e-01 0.0000000000e+00
1323 1.0000000000e+00 1.0000000000e+00 2.0000000000e+00 6.2673860190e-01 -5.0262689885e-01 5.9545354600e-01 0.0000000000e+00
1324 1.0000000000e+00 1.0000000000e+00 2.0000000000e+00 8.9782157282e-01 4.1751416337e-01 -1.3999409547e-01 0.0000000000e+00
1325 1.0000000000e+00 1.0000000000e+00 2.0000000000e+00 8.3278714372e-01 2.2213927697e-01 -5.0706973375e-01 0.0000000000e+00
1326 1.0000000000e+00 1.0000000000e+00 2.0000000000e+00 6.2564980078e-01 -4.6371393148e-01 -6.2732106336e-01 0.0000000000e+00
1327 1.0000000000e+00 1.0000000000e+00 2.0000000000e+00 6.8647152145e-01 -3.9538505385e-01 -6.1026839132e-01 0.0000000000e+00
1328 1.0000000000e+00 1.0000000000e+00 2.0000000000e+00 7.7411269045e-01 1.6582221344e-01 6.1094397126e-01 -0.0000000000e+00
1329 1.0000000000e+00 1.0000000000e+00 2.0000000000e+00 9.0235994814e-01 -3.8821284308e-01 -1.8718256450e-01 0.0000000000e+00
1330 1.0000000000e+00 1.0000000000e+00 2.0000000000e+00 2.9170841108e-01 1.9789547234e-01 9.3581172515e-01 -0.0000000000e+00
1331 1.0000000000e+00 1.0000000000e+00 2.0000000000e+00 7.5209720241e-01 2.6726323437e-01 -6.0242855317e-01 0.0000000000e+00
1332 1.0000000000e+00 1.0000000000e+00 2.0000000000e+00 9.9179991978e-01 1.1526010060e-01 -5.5208951667e-02 0.0000000000e+00
1333 1.0000000000e+00 1.0000000000e+00 2.0000000000e+00 6.2809222656e-01 3.3495915852e-01 7.0235497938e-01 -0.0000000000e+00
1334 1.0000000000e+00 1.0000000000e+00 2.0000000000e+00 3.0651194340e-01 -9.5077343020e-01 -4.5610448135e-02 0.0000000000e+00
1335 1.0000000000e+00 1.0000000000e+00 2.0000000000e+00 7.5740590250e-01 -6.3624286523e-01 -1.4673552841e-01 0.0000000000e+00
1336 1.0000000000e+00 1.0000000000e+00 2.0000000000e+00 8.6903359858e-01 -4.3159493396e-01 2.4188099867e-01 0.0000000000e+00
1337 1.0000000000e+00 1.0000000000e+00 2.0000000000e+00 9.7580686442e-01 2.0796771458e-01 6.7456601127e-02 -0.0000000000e+00
1338 1.0000000000e+00 1.0000000000e+00 2.0000000000e+00 8.1846298235e-01 5.5872066215e-01 1.3397599862e-01 -0.0000000000e+00
1339 1.0000000000e+00 1.0000000000e+00 2.0000000000e+00 9.9727563649e-01 -7.3630201026e-02 -4.4607586497e-03 0.0000000000e+00
1340 1.0000000000e+00 1.0000000000e+00 2.0000000000e+00 4.0851512805e-01 8.5981319568e-01 3.0632769821e-01 -0.0000000000e+00
1341 1.0000000000e+00 1.0000000000e+00 2.0000000000e+00 9.0439751609e-01 1.8141735567e-01 -3.8620315372e-01 0.0000000000e+00
1342 1.0000000000e+00 1.0000000000e+00 2.0000000000e+00 7.1125910169e-01 6.5752330065e-01 2.4854295276e-01 -0.0000000000e+00
1343 1.0000000000e+00 1.0000000000e+00 2.0000000000e+00 7.1563235972e-01 -5.1886955592e-01 -4.6759459970e-01 0.0000000000e+00
1344 1.0000000000e+00 1.0000000000e+00 2.0000000000e+00 9.3366932556e-01 -3.3810954728e-01 -1.1808270217e-01 0.0000000000e+00
1345 1.0000000000e+00 1.0000000000e+00 2.0000000000e+00 7.0072051154e-01 5.7831952357e-01 -4.1777660701e-01 0.0000000000e+00
1346 1.0000000000e+00 1.0000000000e+00 2.0000000000e+00 1.9102720012e-01 -7.4283281863e-01 6.4164477118e-01 0.0000000000e+00
1347 1.0000000000e+00 1.0000000000e+00 2.0000000000e+00 8.4440538866e-01 -4.1989411840e-02 5.3405657836e-01 0.0000000000e+00
1348 1.0000000000e+00 1.0000000000e+00 2.0000000000e+00 7.0704827941e-01 -7.1443472064e-02 7.0354712769e-01 0.0000000000e+00
1349 1.0000000000e+00 1.0000000000e+00 2.0000000000e+00 5.9496252820e-01 -5.8976905720e-01 -5.4606963769e-01 0.0000000000e+00
1350 1.0000000000e+00 1.0000000000e+00 2.0000000000e+00 8.3105514033e-01 3.4735981892e-01 -4.3438290705e-01 0.0000000000e+00
1351 1.0000000000e+00 1.0000000000e+00 2.0000000000e+00 9.3245003978e-01 -3.6077487706e-01 -1.9452799325e-02 0.0000000000e+00
1352 1.0000000000e+00 1.0000000000e+00 2.0000000000e+00 8.8083059136e-01 -4.7322312117e-01 -1.4048022057e-02 0.0000000000e+00
1353 1.0000000000e+00 1.0000000000e+00 2.0000000000e+00 8.5220052558e-01 -3.9647154320e-01 -3.4141555271e-01 0.0000000000e+00
1354 1.0000000000e+00 1.0000000000e+00 2.0000000000e+00 4.0077497855e-01 -1.3828592945e-01 9.0568008606e-01 0.0000000000e+00
1355 1.0000000000e+00 1.0000000000e+00 2.0000000000e+00 3.8320798248e-01 9.2263139144e-01 4.3622903221e-02 -0.0000000000e+00
1356 1.0000000000e+00 1.0000000000e+00 2.0000000000e+00 7.6526405362e-01 2.0100432848e-01 6.1152938455e-01 -0.0000000000e+00
1357 1.0000000000e+00 1.0000000000e+00 2.0000000000e+00 7.2983510366e-01 -6.3316521851e-01 2.5776448076e-01 0.0000000000e+00
1358 1.0000000000e+00 1.0000000000e+00 2.0000000000e+00 8.4778079567e-01 -2.0886144951e-01 -4.8748806898e-01 0.0000000000e+00
1359 1.0000000000e+00 1.0000000000e+00 2.0000000000e+00 8.8382500511e-01 4.6621044565e-01 -3.8745073374e-02 0.0000000000e+00
1360 1.0000000000e+00 1.0000000000e+00 2.0000000000e+00 5.6148713201e-01 -3.8903248336e-01 7.3033275121e-01 0.0000000000e+00
1361 1.0000000000e+00 1.0000000000e+00 2.0000000000e+00 9.5316839761e-01 -4.2121924123e-03 -3.0241075251e-01 0.0000000000e+00
1362 1.0000000000e+00 1.0000000000e+00 2.0000000000e+00 7.8756723060e-01 3.0671574860e-01 -5.3447479533e-01 0.0000000000e+00
1363 1.0000000000e+00 1.0000000000e+00 2.0000000000e+00 4.3793241063e-01 -8.9168922469e-01 -1.1447938806e-01 0.0000000000e+00
1364 1.0000000000e+00 1.0000000000e+00 2.0000000000e+00 9.7476289038e-01 -6.5156962740e-02 -2.1352254622e-01 0.0000000000e+00
1365 1.0000000000e+00 1.0000000000e+00 2.0000000000e+00 5.9632880026e-01 4.9928476602e-01 -6.2857512232e-01 0.0000000000e+00
1366 1.0000000000e+00 1.0000000000e+00 2.0000000000e+00 4.4853538791e-01 -5.9341652409e-01 -6.6833586970e-01 0.0000000000e+00
1367 1.0000000000e+00 1.0000000000e+00 2.0000000000e+00 6.7660736708e-01 3.5836307684e-01 -6.4325607340e-01 0.0000000000e+00
1368 1.0000000000e+00 1.0000000000e+00 2.0000000000e+00 7.8943426287e-01 7.8860875570e-02 6.0874831163e-01 -0.0000000000e+00
1369 1.0000000000e+00 1.0000000000e+00 2.0000000000e+00 6.8579254503e-01 4.1960853971e-01 5.9465726144e-01 -0.0000000000e+00
1370 1.0000000000e+00 1.0000000000e+00 2.0000000000e+00 3.2389184046e-01 -8.9725164019e-01 -3.0005594456e-01 0.0000000000e+00
1371 1.0000000000e+00 1.0000000000e+00 2.0000000000e+00 4.6353702647e-01 -1.1764007319e-01 8.7823358981e-01 0.0000000000e+00
1372 1.0000000000e+00 1.0000000000e+00 2.0000000000e+00 5.5567237983e-01 4.7845064893e-01 -6.7993616085e-01 0.0000000000e+00
1373 1.0000000000e+00 1.0000000000e+00 2.0000000000e+00 5.9009361428e-01 8.0628940529e-01 4.1072147585e-02 -0.0000000000e+00
1374 1.0000000000e+00 1.0000000000e+00 2.0000000000e+00 7.9813804462e-01 -5.4450059641e-01 2.5786578339e-01 0.0000000000e+00
1375 1.0000000000e+00 1.0000000000e+00 2.0000000000e+00 4.6482647684e-01 4.7052272146e-01 7.5002980942e-01 -0.0000000000e+00
1376 1.0000000000e+00 1.0000000000e+00 2.0000000000e+00 7.2775846083e-01 -5.7791758265e-01 -3.6929512636e-01 0.0000000000e+00
1377 1.0000000000e+00 1.0000000000e+00 2.0000000000e+00 8.4883337200e-01 -8.8539850230e-02 -5.2119343961e-01 0.0000000000e+00
1378 1.0000000000e+00 1.0000000000e+00 2.0000000000e+00 7.4486763330e-01 -1.5353473849e-01 -6.4930677876e-01 0.0000000000e+00
1379 1.0000000000e+00 1.0000000000e+00 2.0000000000e+00 7.5848843770e-01 2.4718741970e-01 -6.0298728795e-01 0.0000000000e+00
1380 1.0000000000e+00 1.0000000000e+00 2.0000000000e+00 9.5958455967e-01 -3.5577230800e-02 -2.7916255746e-01 0.0000000000e+00
1381 1.0000000000e+00 1.0000000000e+00 2.0000000000e+00 9.9891406138e-01 -4.1454860451e-02 -2.1264819035e-02 0.0000000000e+00
1382 1.0000000000e+00 1.0000000000e+00 2.0000000000e+00 9.6189091525e-01 -8.5610670789e-02 2.5968573354e-01 0.0000000000e+00
1383 1.0000000000e+00 1.0000000000e+00 2.0000000000e+00 8.7319877944e-01 -4.1439988070e-01 2.5650853876e-01 0.0000000000e+00
1384 1.0000000000e+00 1.0000000000e+00 2.0000000000e+00 1.9823570141e-01 -8.6882081716e-01 4.5371025375e-01 0.0000000000e+00
1385 1.0000000000e+00 1.0000000000e+00 2.0000000000e+00 2.0795143264e-01 -8.9775250261e-01 3.8832543791e-01 0.0000000000e+00
1386 1.0000000000e+00 1.0000000000e+00 2.0000000000e+00 9.0343647315e-01 3.9879852960e-01 -1.5736032461e-01 0.0000000000e+00
1387 1.0000000000e+00 1.0000000000e+00 2.0000000000e+00 9.0690849563e-01 -2.8854720537e-01 3.0701382840e-01 0.0000000000e+00
1388 1.0000000000e+00 1.0000000000e+00 2.0000000000e+00 9.5621762796e-01 2.9257827628e-01 -6.7675864797e-03 0.0000000000e+00
1389 1.0000000000e+00 1.0000000000e+00 2.0000000000e+00 5.2521905988e-01 8.1986582655e-01 2.2795825405e-01 -0.0000000000e+00
1390 1.0000000000e+00 1.0000000000e+00 2.0000000000e+00 7.7090598214e-01 2.7664712676e-01 5.7373367860e-01 -0.0000000000e+00
1391 1.0000000000e+00 1.0000000000e+00 2.0000000000e+00 9.2289634418e-01 3.8189845626e-01 -4.9151876973e-02 0.0000000000e+00
1392 1.0000000000e+00 1.0000000000e+00 2.0000000000e+00 7.4611599773e-01 3.4294186063e-01 5.7070289833e-01 -0.0000000000e+00
1393 1.0000000000e+00 1.0000000000e+00 2.0000000000e+00 9.3501676993e-01 3.5200871703e-01 4.2819424252e-02 -0.0000000000e+00
1394 1.0000000000e+00 1.0000000000e+00 2.0000000000e+00 7.3357048479e-01 -5.0327312511e-01 -4.5671709557e-01 0.0000000000e+00
1395 1.0000000000e+00 1.0000000000e+00 2.0000000000e+00 8.0100779824e-01 -5.9731800868e-01 -3.9971285446e-02 0.0000000000e+00
1396 1.0000000000e+00 1.0000000000e+00 2.0000000000e+00 8.1488396071e-01 3.8029698462e-01 4.3742237490e-01 -0.0000000000e+00
1397 1.0000000000e+00 1.0000000000e+00 2.0000000000e+00 6.3542319466e-01 6.4510951211e-01 4.2434783029e-01 -0.0000000000e+00
1398 1.0000000000e+00 1.0000000000e+00 2.0000000000e+00 3.5103223301e-01 -8.5204187674e-01 3.8833105937e-01 0.0000000000e+00
1399 1.0000000000e+00 1.0000000000e+00 2.0000000000e+00 9.7041988397e-01 -8.6168886754e-02 2.2552199837e-01 0.0000000000e+00
1400 1.0000000000e+00 1.0000000000e+00 2.0000000000e+00 4.6803978369e-01 1.9900600428e-01 -8.6100834557e-01 0.0000000000e+00
1401 1.0000000000e+00 1.0000000000e+00 2.0000000000e+00 6.5598373228e-01 4.0138142270e-01 6.3920129575e-01 -0.0000000000e+00
1402 1.0000000000e+00 1.0000000000e+00 2.0000000000e+00 8.7351952565e-01 3.7930898527e-01 -3.0510380528e-01 0.0000000000e+00
1403 1.0000000000e+00 1.0000000000e+00 2.0000000000e+00 1.2757090854e-01 5.3815124296e-01 -8.3313798557e-01 0.0000000000e+00
1404 1.0000000000e+00 1.0000000000e+00 2.0000000000e+00 1.5298471165e-01 6.3617101827e-01 7.5622887641e-01 -0.0000000000e+00
1405 1.0000000000e+00 1.0000000000e+00 2.0000000000e+00 9.8888045888e-01 7.0098895593e-02 -1.3115480502e-01 0.0000000000e+00
1406 1.0000000000e+00 1.0000000000e+00 2.0000000000e+00 9.4006194749e-01 3.2375380599e-01 -1.0708411642e-01 0.0000000000e+00
1407 1.0000000000e+00 1.0000000000e+00 2.0000000000e+00 8.5480243864e-01 2.9978974234e-01 4.2360229141e-01 -0.0000000000e+00
1408 1.0000000000e+00 1.0000000000e+00 2.0000000000e+00 3.9105244517e-01 7.7566258584e-01 4.9540441869e-01 -0.0000000000e+00
1409 1.0000000000e+00 1.0000000000e+00 2.0000000000e+00 6.4278838909e-01 2.3209899094e-02 7.6569209702e-01 -0.0000000000e+00
1410 1.0000000000e+00 1.0000000000e+00 2.0000000000e+00 9.5988721911e-01 -2.7005429255e-01 -7.5413564175e-02 0.0000000000e+00
1411 1.0000000000e+00 1.0000000000e+00 2.0000000000e+00 4.8119253487e-01 8.7586787644e-01 -3.6182971143e-02 0.0000000000e+00
1412 1.0000000000e+00 1.0000000000e+00 2.0000000000e+00 2.7688731593e-01 9.9497543630e-02 9.5573723015e-01 -0.0000000000e+00
1413 1.0000000000e+00 1.0000000000e+00 2.0000000000e+00 9.2444720263e-01 -5.1073332360e-02 3.7787416461e-01 0.0000000000e+00
1414 1.0000000000e+00 1.0000000000e+00 2.0000000000e+00 8.3161814151e-01 3.8028768052e-01 -4.0471291894e-01 0.0000000000e+00
1415 1.0000000000e+00 1.0000000000e+00 2.0000000000e+00 9.6054242235e-01 2.1086375085e-01 -1.8136905316e-01 0.0000000000e+00
1416 1.0000000000e+00 1.0000000000e+00 2.0000000000e+00 5.4625711867e-01 6.8936631982e-01 -4.7579116995e-01 0.0000000000e+00
1417 1.0000000000e+00 1.0000000000e+00 2.0000000000e+00 9.0349638617e-01 -4.1754514915e-01 9.6697097134e-02 0.0000000000e+00
1418 1.0000000000e+00 1.0000000000e+00 2.0000000000e+00 8.1386156572e-01 -2.6828841043e-02 -5.8043911405e-01 0.0000000000e+00
1419 1.0000000000e+00 1.0000000000e+00 2.0000000000e+00 1.8776709269e-01 1.9083403018e-01 -9.6349670048e-01 0.0000000000e+00
1420 1.0000000000e+00 1.0000000000e+00 2.0000000000e+00 7.7199625898e-01 6.1244419181e-01 1.7009964152e-01 -0.0000000000e+00
1421 1.0000000000e+00 1.0000000000e+00 2.0000000000e+00 1.0007526567e-02 9.9993472329e-01 -5.5134894823e-03 0.0000000000e+00
1422 1.0000000000e+00 1.0000000000e+00 2.0000000000e+00 9.2611425553e-01 -7.5137409160e-02 -3.6968467028e-01 0.0000000000e+00
1423 1.0000000000e+00 1.0000000000e+00 2.0000000000e+00 5.1155264358e-01 1.2217595293e-01 -8.5052156315e-01 0.0000000000e+00
1424 1.0000000000e+00 1.0000000000e+00 2.0000000000e+00 5.0748859381e-01 -6.0001320863e-02 -8.5956684944e-01 0.0000000000e+00
1425 1.0000000000e+00 1.0000000000e+00 2.0000000000e+00 8.2946718596e-01 5.4807034227e-01 1.0771762779e-01 -0.0000000000e+00
1426 1.0000000000e+00 1.0000000000e+00 2.0000000000e+00 3.9167976192e-01 -1.1255128466e-01 9.1319175008e-01 0.0000000000e+00
1427 1.0000000000e+00 1.0000000000e+00 2.0000000000e+00 5.2292358126e-01 7.8321396026e-01 3.3634330769e-01 -0.0000000000e+00
1428 1.0000000000e+00 1.0000000000e+00 2.0000000000e+00 7.9132378405e-01 2.0252898703e-01 -5.7687839117e-01 0.0000000000e+00
1429 1.0000000000e+00 1.0000000000e+00 2.0000000000e+00 1.8914012293e-01 5.1153965253e-01 8.3818446525e-01 -0.0000000000e+00
1430 1.0000000000e+00 1.0000000000e+00 2.0000000000e+00 3.8241823662e-01 -6.5929609083e-01 -6.4736771384e-01 0.0000000000e+00
1431 1.0000000000e+00 1.0000000000e+00 2.0000000000e+00 7.4085928892e-01 -6.7137811361e-01 -1.9466447771e-02 0.0000000000e+00
1432 1.0000000000e+00 1.0000000000e+00 2.0000000000e+00 8.3865566090e-01 2.4951673443e-01 -4.8414675634e-01 0.0000000000e+00
1433 1.0000000000e+00 1.0000000000e+00 2.0000000000e+00 9.5858940866e-01 -2.7504913424e-01 -7.3853363959e-02 0.0000000000e+00
1434 1.0000000000e+00 1.0000000000e+00 2.0000000000e+00 6.7121673820e-01 7.2526353142e-01 -1.5316951509e-01 0.0000000000e+00
1435 1.0000000000e+00 1.0000000000e+00 2.0000000000e+00 4.8245987902e-01 -8.4060535648e-01 -2.4620133995e-01 0.0000000000e+00
1436 1.0000000000e+00 1.0000000000e+00 2.0000000000e+00 4.1561870462e-01 -4.3723354958e-01 7.9755119929e-01 0.0000000000e+00
1437 1.0000000000e+00 1.0000000000e+00 2.0000000000e+00 8.9417364792e-01 4.4613704639e-01 -3.7619452558e-02 0.0000000000e+00
1438 1.0000000000e+00 1.0000000000e+00 2.0000000000e+00 9.2439767631e-01 -3.7043164395e-01 9.0935874082e-02 0.0000000000e+00
1439 1.0000000000e+00 1.0000000000e+00 2.0000000000e+00 8.5802847774e-01 -5.1320799323e-01 2.0116835701e-02 0.0000000000e+00
1440 1.0000000000e+00 1.0000000000e+00 2.0000000000e+00 5.4904033247e-01 5.6207145701e-01 6.1857124936e-01 -0.0000000000e+00
1441 1.0000000000e+00 1.0000000000e+00 2.0000000000e+00 8.2420591712e-01 4.0060333807e-01 -4.0025188533e-01 0.0000000000e+00
1442 1.0000000000e+00 1.0000000000e+00 2.0000000000e+00 4.1264313950e-01 -6.1142719692e-02 -9.0883838346e-01 0.0000000000e+00
1443 1.0000000000e+00 1.0000000000e+00 2.0000000000e+00 6.9356624097e-01 -5.2661806175e-01 -4.9156819103e-01 0.0000000000e+00
1444 1.0000000000e+00 1.0000000000e+00 2.0000000000e+00 6.2899995695e-01 6.7844518866e-01 3.7956709571e-01 -0.0000000000e+00
1445 1.0000000000e+00 1.0000000000e+00 2.0000000000e+00 5.9021571530e-01 -4.6219884791e-01 -6.6182900692e-01 0.0000000000e+00
1446 1.0000000000e+00 1.0000000000e+00 2.0000000000e+00 1.5585282074e-01 9.2245518447e-01 -3.5325108763e-01 0.0000000000e+00
1447 1.0000000000e+00 1.0000000000e+00 2.0000000000e+00 8.8121614236e-01 -2.2618274983e-01 4.1508971817e-01 0.0000000000e+00
1448 1.0000000000e+00 1.0000000000e+00 2.0000000000e+00 6.3977164577e-01 5.9290405841e-01 -4.8903682764e-01 0.0000000000e+00
1449 1.0000000000e+00 1.0000000000e+00 2.0000000000e+00 8.6950669939e-01 3.6248001642e-01 3.3550907203e-01 -0.0000000000e+00
1450 1.0000000000e+00 1.0000000000e+00 2.0000000000e+00 3.1701655752e-01 9.2974736384e-01 1.8727077105e-01 -0.0000000000e+00
1451 1.0000000000e+00 1.0000000000e+00 2.0000000000e+00 6.7511018703e-01 -1.9060908115e-01 7.1266711272e-01 0.0000000000e+00
1452 1.0000000000e+00 1.0000000000e+00 2.0000000000e+00 3.3165776460e-01 -1.5956225343e-01 9.2980805248e-01 0.0000000000e+00
1453 1.0000000000e+00 1.0000000000e+00 2.0000000000e+00 8.0947734119e-01 -1.7923154207e-01 -5.5912654063e-01 0.0000000000e+00
1454 1.0000000000e+00 1.0000000000e+00 2.0000000000e+00 7.5235847407e-01 -2.9238776904e-01 5.9031018880e-01 0.0000000000e+00
1455 1.0000000000e+00 1.0000000000e+00 2.0000000000e+00 1.3600979931e-01 -9.2885176730e-01 -3.4458051145e-01 0.0000000000e+00
1456 1.0000000000e+00 1.0000000000e+00 2.0000000000e+00 7.7312503413e-01 -1.0953906477e-02 6.3415904436e-01 0.0000000000e+00
1457 1.0000000000e+00 1.0000000000e+00 2.0000000000e+00 4.7098118284e-01 5.6831543514e-01 -6.7468088130e-01 0.0000000000e+00
1458 1.0000000000e+00 1.0000000000e+00 2.0000000000e+00 9.9772335305e-01 3.6741819496e-03 -6.7339521554e-02 0.0000000000e+00
1459 1.0000000000e+00 1.0000000000e+00 2.0000000000e+00 9.7285966259e-01 1.2808438972e-01 1.9271342975e-01 -0.0000000000e+00
1460 1.0000000000e+00 1.0000000000e+00 2.0000000000e+00 8.4678883309e-01 1.1282873536e-01 5.1982530588e-01 -0.0000000000e+00
1461 1.0000000000e+00 1.0000000000e+00 2.0000000000e+00 8.9235769578e-01 -3.2102630907e-01 3.1723784715e-01 0.0000000000e+00
1462 1.0000000000e+00 1.0000000000e+00 2.0000000000e+00 7.7369430347e-01 -5.5014829582e-01 -3.1421963238e-01 0.0000000000e+00
1463 1.0000000000e+00 1.0000000000e+00 2.0000000000e+00 9.0626604807e-01 3.5247188424e-01 2.3333542581e-01 -0.0000000000e+00
1464 1.0000000000e+00 1.0000000000e+00 2.0000000000e+00 6.0200357616e-01 -6.9533183472e-01 3.9256252229e-01 0.0000000000e+00
1465 1.0000000000e+00 1.0000000000e+00 2.0000000000e+00 2.7224884231e-01 -7.0470351592e-01 -6.5518968438e-01 0.0000000000e+00
1466 1.0000000000e+00 1.0000000000e+00 2.0000000000e+00 8.4869979898e-01 5.2886802557e-01 -2.6949491466e-03 0.0000000000e+00
1467 1.0000000000e+00 1.0000000000e+00 2.0000000000e+00 3.3203973554e-01 -1.6545906649e-01 -9.2864035629e-01 0.0000000000e+00
1468 1.0000000000e+00 1.0000000000e+00 2.0000000000e+00 7.1916090717e-01 5.8181035565e-01 -3.7987405763e-01 0.0000000000e+00
1469 1.0000000000e+00 1.0000000000e+00 2.0000000000e+00 6.7347056161e-01 1.1717205450e-01 -7.2986855823e-01 0.0000000000e+00
1470 1.0000000000e+00 1.0000000000e+00 2.0000000000e+00 7.9583921835e-01 5.8525232111e-01 1.5530505196e-01 -0.0000000000e+00
1471 1.0000000000e+00 1.0000000000e+00 2.0000000000e+00 6.7090509834e-01 6.8418740169e-01 2.8596144563e-01 -0.0000000000e+00
1472 1.0000000000e+00 1.0000000000e+00 2.0000000000e+00 5.9960253542e-01 6.5984616623e-01 4.5285741292e-01 -0.0000000000e+00
1473 1.0000000000e+00 1.0000000000e+00 2.0000000000e+00 6.0236430443e-01 7.7262510473e-01 -2.0051855848e-01 0.0000000000e+00
1474 1.0000000000e+00 1.0000000000e+00 2.0000000000e+00 5.8961750409e-01 4.9712339505e-01 6.3656855794e-01 -0.0000000000e+00
1475 1.0000000000e+00 1.0000000000e+00 2.0000000000e+00 9.2364755917e-01 -3.7616255869e-01 7.3327456448e-02 0.0000000000e+00
1476 1.0000000000e+00 1.0000000000e+00 2.0000000000e+00 7.7406959466e-01 2.5724258601e-01 -5.7848294233e-01 0.0000000000e+00
1477 1.0000000000e+00 1.0000000000e+00 2.0000000000e+00 8.0598311440e-01 5.4395621792e-01 -2.3345845947e-01 0.0000000000e+00
1478 1.0000000000e+00 1.0000000000e+00 2.0000000000e+00 8.7936234748e-02 -7.9587423764e-01 5.9904208239e-01 0.0000000000e+00
1479 1.0000000000e+00 1.0000000000e+00 2.0000000000e+00 9.7157350267e-01 -1.6490873035e-01 1.6985299395e-01 0.0000000000e+00
1480 1.0000000000e+00 1.0000000000e+00 2.0000000000e+00 2.1602701244e-01 -4.0944653818e-01 8.8638922730e-01 0.0000000000e+00
1481 1.0000000000e+00 1.0000000000e+00 2.0000000000e+00 5.6828893293e-01 -3.0800364385e-01 -7.6300815466e-01 0.0000000000e+00
1482 1.0000000000e+00 1.0000000000e+00 2.0000000000e+00 9.9644133450e-01 -8.4288379963e-02 -3.6863853880e-04 0.0000000000e+00
1483 1.0000000000e+00 1.0000000000e+00 2.0000000000e+00 9.7782070284e-01 -1.9140327940e-01 8.5037978180e-02 0.0000000000e+00
1484 1.0000000000e+00 1.0000000000e+00 2.0000000000e+00 7.2147430011e-01 -6.1307381992e-01 -3.2189334508e-01 0.0000000000e+00
1485 1.0000000000e+00 1.0000000000e+00 2.0000000000e+00 8.5533959893e-01 1.5045101454e-01 -4.9574051956e-01 0.0000000000e+00
1486 1.0000000000e+00 1.0000000000e+00 2.0000000000e+00 8.7542349292e-01 -6.5326926057e-02 4.7892181072e-01 0.0000000000e+00
1487 1.0000000000e+00 1.0000000000e+00 2.0000000000e+00 8.6935096617e-01 -4.5344958150e-01 1.9650031718e-01 0.0000000000e+00
1488 1.0000000000e+00 1.0000000000e+00 2.0000000000e+00 7.7430188625e-01 -4.8672591626e-01 -4.0441868329e-01 0.0000000000e+00
1489 1.0000000000e+00 1.0000000000e+00 2.0000000000e+00 9.7998047655e-01 1.1153003614e-02 -1.9878097519e-01 0.0000000000e+00
1490 1.0000000000e+00 1.0000000000e+00 2.0000000000e+00 9.5411381067e-01 -5.4605550681e-02 2.9442328393e-01 0.0000000000e+00
1491 1.0000000000e+00 1.0000000000e+00 2.0000000000e+00 7.6554807592e-01 -1.7388723564e-01 -6.1943472031e-01 0.0000000000e+00
1492 1.0000000000e+00 1.0000000000e+00 2.0000000000e+00 6.7570725866e-01 6.8455271818e-01 2.7350918931e-01 -0.0000000000e+00
1493 1.0000000000e+00 1.0000000000e+00 2.0000000000e+00 6.8694776666e-01 7.0381777560e-01 1.8095111118e-01 -0.0000000000e+00
1494 1.0000000000e+00 1.0000000000e+00 2.0000000000e+00 9.8839976854e-01 4.0800993289e-02 -1.4629140952e-01 0.0000000000e+00
1495 1.0000000000e+00 1.0000000000e+00 2.0000000000e+00 4.5250874397e-01 4.6820867683e-01 7.5895748996e-01 -0.0000000000e+00
1496 1.0000000000e+00 1.0000000000e+00 2.0000000000e+00 7.2227015236e-01 -5.5014958255e-01 -4.1911962949e-01 0.0000000000e+00
1497 1.0000000000e+00 1.0000000000e+00 2.0000000000e+00 1.1634573335e-01 -9.9130172353e-01 -6.1518804043e-02 0.0000000000e+00
1498 1.0000000000e+00 1.0000000000e+00 2.0000000000e+00 7.7347507961e-01 -4.1949527619e-01 -4.7514209925e-01 0.0000000000e+00
1499 1.0000000000e+00 1.0000000000e+00 2.0000000000e+00 6.3224890348e-01 6.1004248894e-02 -7.7235989388e-01 0.0000000000e+00
1500 1.0000000000e+00 1.0000000000e+00 2.0000000000e+00 4.4349653218e-01 7.5226324670e-02 -8.9311355718e-01 0.0000000000e+00
1501 1.0000000000e+00 1.0000000000e+00 2.0000000000e+00 7.1515792491e-01 -6.7766967669e-02 -6.9567002273e-01 0.0000000000e+00
1502 1.0000000000e+00 1.0000000000e+00 2.0000000000e+00 5.4101651873e-01 5.7128202037e-01 6.1720173336e-01 -0.0000000000e+00
1503 1.0000000000e+00 1.0000000000e+00 2.0000000000e+00 8.5395273322e-01 3.2508381849e-01 4.0630683034e-01 -0.0000000000e+00
1504 1.0000000000e+00 1.0000000000e+00 2.0000000000e+00 5.7353374778e-01 -1.7109620662e-01 8.0111492823e-01 0.0000000000e+00
1505 1.0000000000e+00 1.0000000000e+00 2.0000000000e+00 3.6419850837e-01 -3.7299834708e-01 8.5336491584e-01 0.0000000000e+00
1506 1.0000000000e+00 1.0000000000e+00 2.0000000000e+00 5.6356216247e-01 -8.2605804181e-01 -5.0794287582e-03 0.0000000000e+00
1507 1.0000000000e+00 1.0000000000e+00 2.0000000000e+00 5.5646547547e-01 4.8202486913e-01 -6.7675564287e-01 0.0000000000e+00
1508 1.0000000000e+00 1.0000000000e+00 2.0000000000e+00 9.2553661364e-01 3.7842262444e-01 1.3352682354e-02 -0.0000000000e+00
1509 1.0000000000e+00 1.0000000000e+00 2.0000000000e+00 6.3949308550e-01 4.1805260881e-01 -6.4519811675e-01 0.0000000000e+00
1510 1.0000000000e+00 1.0000000000e+00 2.0000000000e+00 9.8453492881e-01 8.3975112959e-02 -1.5375029871e-01 0.0000000000e+00
1511 1.0000000000e+00 1.0000000000e+00 2.0000000000e+00 6.1309054668e-01 -4.0316293524e-01 -6.7939651840e-01 0.0000000000e+00
1512 1.0000000000e+00 1.0000000000e+00 2.0000000000e+00 8.1897614237e-01 3.2906815835e-02 5.7288325137e-01 -0.0000000000e+00
1513 1.0000000000e+00 1.0000000000e+00 2.0000000000e+00 4.0028255208e-01 -8.8454257598e-01 -2.3949594939e-01 0.0000000000e+00
1514 1.0000000000e+00 1.0000000000e+00 2.0000000000e+00 7.7306260077e-01 6.2465944877e-01 1.1033942339e-01 -0.0000000000e+00
1515 1.0000000000e+00 1.0000000000e+00 2.0000000000e+00 8.5964464322e-01 -2.9448765764e-01 -4.1747827116e-01 0.0000000000e+00
1516 1.0000000000e+00 1.0000000000e+00 2.0000000000e+00 9.6502367787e-01 2.0228363757e-01 -1.6676519759e-01 0.0000000000e+00
1517 1.0000000000e+00 1.0000000000e+00 2.0000000000e+00 4.9700491799e-01 3.0199791529e-01 -8.1350068879e-01 0.0000000000e+00
1518 1.0000000000e+00 1.0000000000e+00 2.0000000000e+00 8.7158267332e-01 4.6152871937e-01 -1.6533264884e-01 0.0000000000e+00
1519 1.0000000000e+00 1.0000000000e+00 2.0000000000e+00 3.4386998106e-01 -4.1020355445e-01 8.4468128903e-01 0.0000000000e+00
1520 1.0000000000e+00 1.0000000000e+00 2.0000000000e+00 4.6380058025e-01 3.5355181084e-01 -8.1233622277e-01 0.0000000000e+00
1521 1.0000000000e+00 1.0000000000e+00 2.0000000000e+00 9.9898243809e-01 -3.4575396547e-02 2.8959115159e-02 0.0000000000e+00
1522 1.0000000000e+00 1.0000000000e+00 2.0000000000e+00 8.5240786971e-01 3.9279637077e-01 3.4512582455e-01 -0.0000000000e+00
1523 1.0000000000e+00 1.0000000000e+00 2.0000000000e+00 7.8188872031e-01 4.4280293668e-01 -4.3883435180e-01 0.0000000000e+00
1524 1.0000000000e+00 1.0000000000e+00 2.0000000000e+00 4.8672971940e-01 1.7141439586e-01 -8.5656948647e-01 0.0000000000e+00
1525 1.0000000000e+00 1.0000000000e+00 2.0000000000e+00 8.1021046929e-01 3.5093525063e-01 -4.6947145315e-01 0.0000000000e+00
1526 1.0000000000e+00 1.0000000000e+00 2.0000000000e+00 9.0028099632e-01 -2.0094832994e-02 4.3484517400e-01 0.0000000000e+00
1527 1.0000000000e+00 1.0000000000e+00 2.0000000000e+00 5.6918508635e-01 -2.8513042019e-01 7.7118673547e-01 0.0000000000e+00
1528 1.0000000000e+00 1.0000000000e+00 2.0000000000e+00 4.2164465107e-01 8.9251330337e-01 -1.6011180950e-01 0.0000000000e+00
1529 1.0000000000e+00 1.0000000000e+00 2.0000000000e+00 6.2708343482e-02 -4.9588228986e-01 -8.6612263465e-01 0.0000000000e+00
1530 1.0000000000e+00 1.0000000000e+00 2.0000000000e+00 2.6231580367e-01 4.4314803182e-02 9.6396401248e-01 -0.0000000000e+00
1531 1.0000000000e+00 1.0000000000e+00 2.0000000000e+00 7.2493737890e-01 6.8840575353e-01 2.3734261669e-02 -0.0000000000e+00
1532 1.0000000000e+00 1.0000000000e+00 2.0000000000e+00 8.8081241917e-01 1.1170098942e-01 -4.6010039253e-01 0.0000000000e+00
1533 1.0000000000e+00 1.0000000000e+00 2.0000000000e+00 9.8886126031e-01 1.3115189282e-01 -7.0374632325e-02 0.0000000000e+00
1534 1.0000000000e+00 1.0000000000e+00 2.0000000000e+00 6.5854327758e-01 -4.7116155419e-01 -5.8679429223e-01 0.0000000000e+00
1535 1.0000000000e+00 1.0000000000e+00 2.0000000000e+00 4.1840268710e-01 2.2233869964e-01 8.8062744340e-01 -0.0000000000e+00
1536 1.0000000000e+00 1.0000000000e+00 2.0000000000e+00 8.2639207815e-01 -3.0520916719e-01 -4.7320555516e-01 0.0000000000e+00
1537 1.0000000000e+00 1.0000000000e+00 2.0000000000e+00 9.3277092136e-01 2.7811946481e-01 -2.2932067407e-01 0.0000000000e+00
1538 1.0000000000e+00 1.0000000000e+00 2.0000000000e+00 7.7419432053e-01 -3.6189588914e-01 -5.1928269707e-01 0.0000000000e+00
1539 1.0000000000e+00 1.0000000000e+00 2.0000000000e+00 9.9891200956e-01 4.4674257905e-02 -1.3379381166e-02 0.0000000000e+00
1540 1.0000000000e+00 1.0000000000e+00 2.0000000000e+00 5.3861071338e-01 7.7154260462e-01 3.3855650739e-01 -0.0000000000e+00
1541 1.0000000000e+00 1.0000000000e+00 2.0000000000e+00 6.8565723371e-01 -6.4399906085e-01 3.3932192308e-01 0.0000000000e+00
1542 1.0000000000e+00 1.0000000000e+00 2.0000000000e+00 4.1210237421e-01 3.0574049999e-01 -8.5830902351e-01 0.0000000000e+00
1543 1.0000000000e+00 1.0000000000e+00 2.0000000000e+00 8.5202187464e-01 3.6738034164e-01 -3.7294826680e-01 0.0000000000e+00
1544 1.0000000000e+00 1.0000000000e+00 2.0000000000e+00 6.0677599146e-01 2.6523252291e-01 -7.4931609150e-01 0.0000000000e+00
1545 1.0000000000e+00 1.0000000000e+00 2.0000000000e+00 5.4285633448e-01 -7.1054785571e-02 -8.3681432681e-01 0.0000000000e+00
1546 1.0000000000e+00 1.0000000000e+00 2.0000000000e+00 7.6625351835e-01 6.3680389419e-01 8.5652472015e-02 -0.0000000000e+00
1547 1.0000000000e+00 1.0000000000e+00 2.0000000000e+00 7.8978555562e-01 5.5742750765e-01 -2.5595575758e-01 0.0000000000e+00
1548 1.0000000000e+00 1.0000000000e+00 2.0000000000e+00 6.6478429818e-01 -2.5581946535e-01 7.0186767844e-01 0.0000000000e+00
1549 1.0000000000e+00 1.0000000000e+00 2.0000000000e+00 9.9474914264e-01 -7.3374277773e-02 7.1346748952e-02 0.0000000000e+00
1550 1.0000000000e+00 1.0000000000e+00 2.0000000000e+00 5.0228982295e-01 -1.3539714435e-01 8.5403310654e-01 0.0000000000e+00
1551 1.0000000000e+00 1.0000000000e+00 2.0000000000e+00 8.3018089571e-01 -2.7372483731e-01 -4.8566901675e-01 0.0000000000e+00
1552 1.0000000000e+00 1.0000000000e+00 2.0000000000e+00 9.6037660441e-01 -2.6526902269e-01 -8.5493410845e-02 0.0000000000e+00
1553 1.0000000000e+00 1.0000000000e+00 2.0000000000e+00 7.4743427129e-01 6.6253328053e-01 4.8904624540e-02 -0.0000000000e+00
1554 1.0000000000e+00 1.0000000000e+00 2.0000000000e+00 8.1721987511e-01 1.8549678168e-01 5.4565796953e-01 -0.0000000000e+00
1555 1.0000000000e+00 1.0000000000e+00 2.0000000000e+00 8.7202854578e-01 3.5391717495e-01 -3.3809591630e-01 0.0000000000e+00
1556 1.0000000000e+00 1.0000000000e+00 2.0000000000e+00 6.2255158525e-01 4.1643738953e-01 -6.6257786282e-01 0.0000000000e+00
1557 1.0000000000e+00 1.0000000000e+00 2.0000000000e+00 7.4195961731e-01 -1.3346889088e-02 6.7031170871e-01 0.0000000000e+00
1558 1.0000000000e+00 1.0000000000e+00 2.0000000000e+00 8.9542373921e-01 4.4505172513e-01 1.2053598214e-02 -0.0000000000e+00
1559 1.0000000000e+00 1.0000000000e+00 2.0000000000e+00 9.5168215337e-01 -3.0629714382e-01 2.1980415184e-02 0.0000000000e+00
1560 1.0000000000e+00 1.0000000000e+00 2.0000000000e+00 7.2745898196e-01 -5.9290360516e-01 3.4535307230e-01 0.0000000000e+00
1561 1.0000000000e+00 1.0000000000e+00 2.0000000000e+00 9.0276108171e-01 3.9945688323e-02 4.2828351746e-01 -0.0000000000e+00
1562 1.0000000000e+00 1.0000000000e+00 2.0000000000e+00 7.3073536218e-01 -4.9369264710e-01 4.7148001088e-01 0.0000000000e+00
1563 1.0000000000e+00 1.0000000000e+00 2.0000000000e+00 8.2101957841e-01 -5.2108459717e-01 -2.3323313329e-01 0.0000000000e+00
1564 1.0000000000e+00 1.0000000000e+00 2.0000000000e+00 5.7911824996e-01 -6.8713365670e-01 4.3871333510e-01 0.0000000000e+00
1565 1.0000000000e+00 1.0000000000e+00 2.0000000000e+00 8.6847955508e-01 -1.7896247796e-01 -4.6229394750e-01 0.0000000000e+00
1566 1.0000000000e+00 1.0000000000e+00 2.0000000000e+00 3.4011617374e-01 7.6323882503e-01 5.4935187660e-01 -0.0000000000e+00
1567 1.0000000000e+00 1.0000000000e+00 2.0000000000e+00 4.2908822695e-01 9.0145390811e-01 -5.7132696805e-02 0.0000000000e+00
1568 1.0000000000e+00 1.0000000000e+00 2.0000000000e+00 9.5061218771e-01 4.4002954761e-02 3.0724616930e-01 -0.0000000000e+00
1569 1.0000000000e+00 1.0000000000e+00 2.0000000000e+00 5.3325399884e-02 9.6129763706e-01 2.7030215446e-01 -0.0000000000e+00
1570 1.0000000000e+00 1.0000000000e+00 2.0000000000e+00 5.8120887022e-01 7.4642483587e-01 -3.2410833617e-01 0.0000000000e+00
1571 1.0000000000e+00 1.0000000000e+00 2.0000000000e+00 6.2828111810e-01 2.7988626981e-01 -7.2589703995e-01 0.0000000000e+00
1572 1.0000000000e+00 1.0000000000e+00 2.0000000000e+00 8.9842266190e-01 4.3382159372e-01 6.8084839684e-02 -0.0000000000e+00
1573 1.0000000000e+00 1.0000000000e+00 2.0000000000e+00 4.5783396917e-01 3.3583526968e-02 8.8840317615e-01 -0.0000000000e+00
1574 1.0000000000e+00 1.0000000000e+00 2.0000000000e+00 2.2490336668e-01 -8.5853294480e-01 4.6080327511e-01 0.0000000000e+00
1575 1.0000000000e+00 1.0000000000e+00 2.0000000000e+00 2.6332478609e-01 -2.6261702768e-01 9.2827385712e-01 0.0000000000e+00
1576 1.0000000000e+00 1.0000000000e+00 2.0000000000e+00 7.7883258885e-01 -6.4613376314e-02 6.2389495122e-01 0.0000000000e+00
1577 1.0000000000e+00 1.0000000000e+00 2.0000000000e+00 1.5009040653e-01 9.8860570495e-01 -1.1473012178e-02 0.0000000000e+00
1578 1.0000000000e+00 1.0000000000e+00 2.0000000000e+00 8.7072664115e-01 4.9004771933e-01 -4.1089526339e-02 0.0000000000e+00
1579 1.0000000000e+00 1.0000000000e+00 2.0000000000e+00 8.9874374471e-01 -9.1792628829e-02 4.2875843390e-01 0.0000000000e+00
1580 1.0000000000e+00 1.0000000000e+00 2.0000000000e+00 6.4870307363e-01 -1.1809700794e-01 7.5182273109e-01 0.0000000000e+00
1581 1.0000000000e+00 1.0000000000e+00 2.0000000000e+00 3.8071814226e-01 -4.4032257182e-01 8.1312344014e-01 0.0000000000e+00
1582 1.0000000000e+00 1.0000000000e+00 2.0000000000e+00 8.8770993961e-01 1.8782866072e-01 4.2034682982e-01 -0.0000000000e+00
1583 1.0000000000e+00 1.0000000000e+00 2.0000000000e+00 6.6573213588e-01 5.1980575760e-01 -5.3535287206e-01 0.0000000000e+00
1584 1.0000000000e+00 1.0000000000e+00 2.0000000000e+00 8.3798385139e-01 -5.4459597542e-01 3.4616302068e-02 0.0000000000e+00
1585 1.0000000000e+00 1.0000000000e+00 2.0000000000e+00 3.4868953424e-01 7.2913718157e-01 5.8887569076e-01 -0.0000000000e+00
1586 1.0000000000e+00 1.0000000000e+00 2.0000000000e+00 9.6150672410e-01 -2.1519099134e-01 1.7087321839e-01 0.0000000000e+00
1587 1.0000000000e+00 1.0000000000e+00 2.0000000000e+00 8.8318231865e-01 3.4724487238e-01 3.1529349920e-01 -0.0000000000e+00
1588 1.0000000000e+00 1.0000000000e+00 2.0000000000e+00 8.7991643930e-01 -4.2004223259e-01 -2.2206211450e-01 0.0000000000e+00
1589 1.0000000000e+00 1.0000000000e+00 2.0000000000e+00 7.4350614081e-01 6.4474080729e-01 1.7750467597e-01 -0.0000000000e+00
1590 1.0000000000e+00 1.0000000000e+00 2.0000000000e+00 4.5997366258e-01 -1.4479087642e-01 -8.7604784792e-01 0.0000000000e+00
1591 1.0000000000e+00 1.0000000000e+00 2.0000000000e+00 7.2481955032e-01 6.6906513772e-01 1.6428165132e-01 -0.0000000000e+00
1592 1.0000000000e+00 1.0000000000e+00 2.0000000000e+00 4.6183127337e-01 8.0810496833e-01 3.6562034284e-01 -0.0000000000e+00
1593 1.0000000000e+00 1.0000000000e+00 2.0000000000e+00 8.3540877411e-01 4.4591889780e-01 -3.2132307219e-01 0.0000000000e+00
1594 1.0000000000e+00 1.0000000000e+00 2.0000000000e+00 4.6375937109e-01 -7.4510377227e-01 -4.7931994979e-01 0.0000000000e+00
1595 1.0000000000e+00 1.0000000000e+00 2.0000000000e+00 5.1097214909e-01 7.5380830932e-01 -4.1313496058e-01 0.0000000000e+00
1596 1.0000000000e+00 1.0000000000e+00 2.0000000000e+00 7.6948179334e-01 -3.5950197058e-01 -5.2787887140e-01 0.0000000000e+00
1597 1.0000000000e+00 1.0000000000e+00 2.0000000000e+00 5.8053576928e-01 2.4470683195e-01 7.7659306396e-01 -0.0000000000e+00
1598 1.0000000000e+00 1.0000000000e+00 2.0000000000e+00 6.8375549798e-01 7.2456904886e-01 8.6476080016e-02 -0.0000000000e+00
1599 1.0000000000e+00 1.0000000000e+00 2.0000000000e+00 9.5558893797e-01 -1.1493715968e-01 2.7136549331e-01 0.0000000000e+00
1600 1.0000000000e+00 1.0000000000e+00 2.0000000000e+00 9.2958637862e-01 3.5789352455e-01 8.8212186011e-02 -0.0000000000e+00
1601 1.0000000000e+00 1.0000000000e+00 2.0000000000e+00 7.9994178966e-01 -5.7250127778e-01 -1.7982052190e-01 0.0000000000e+00
1602 1.0000000000e+00 1.0000000000e+00 2.0000000000e+00 4.9218116769e-01 3.0482616266e-02 8.6995891183e-01 -0.0000000000e+00
1603 1.0000000000e+00 1.0000000000e+00 2.0000000000e+00 1.9727638148e-01 8.7990268545e-01 4.3226530446e-01 -0.0000000000e+00
1604 1.0000000000e+00 1.0000000000e+00 2.0000000000e+00 9.7400825988e-01 -1.6919553822e-01 -1.5060139286e-01 0.0000000000e+00
1605 1.0000000000e+00 1.0000000000e+00 2.0000000000e+00 4.4350961503e-01 -5.5984442218e-01 -6.9990959726e-01 0.0000000000e+00
1606 1.0000000000e+00 1.0000000000e+00 2.0000000000e+00 1.6080370122e-01 8.3241878657e-01 5.3030286953e-01 -0.0000000000e+00
1607 1.0000000000e+00 1.0000000000e+00 2.0000000000e+00 8.5722437840e-01 1.7055755533e-01 -4.8587702703e-01 0.0000000000e+00
1608 1.0000000000e+00 1.0000000000e+00 2.0000000000e+00 1.8245700870e-01 -7.7262778572e-01 -6.0807544327e-01 0.0000000000e+00
1609 1.0000000000e+00 1.0000000000e+00 2.0000000000e+00 2.1571911640e-01 7.0671096426e-01 -6.7381368034e-01 0.0000000000e+00
1610 1.0000000000e+00 1.0000000000e+00 2.0000000000e+00 5.2452225614e-01 -8.5118166712e-01 -1.9135630872e-02 0.0000000000e+00
1611 1.0000000000e+00 1.0000000000e+00 2.0000000000e+00 6.4856118405e-01 5.9332762907e-01 -4.7679210891e-01 0.0000000000e+00
1612 1.0000000000e+00 1.0000000000e+00 2.0000000000e+00 9.1315157958e-01 2.7868194220e-01 2.9747364218e-01 -0.0000000000e+00
1613 1.0000000000e+00 1.0000000000e+00 2.0000000000e+00 9.1383166973e-02 -1.5648305972e-01 9.8344403441e-01 0.0000000000e+00
1614 1.0000000000e+00 1.0000000000e+00 2.0000000000e+00 4.5485368474e-01 8.7741466577e-01 -1.5248485097e-01 0.0000000000e+00
1615 1.0000000000e+00 1.0000000000e+00 2.0000000000e+00 7.5387122442e-01 -6.1967744903e-01 -2.1835300814e-01 0.0000000000e+00
1616 1.0000000000e+00 1.0000000000e+00 2.0000000000e+00 4.8986420988e-01 -5.4285492737e-01 -6.8215950020e-01 0.0000000000e+00
1617 1.0000000000e+00 1.0000000000e+00 2.0000000000e+00 6.0576487811e-01 5.5427762807e-01 5.7081102256e-01 -0.0000000000e+00
1618 1.0000000000e+00 1.0000000000e+00 2.0000000000e+00 3.8705289560e-01 -1.4241718656e-01 9.1099253618e-01 0.0000000000e+00
1619 1.0000000000e+00 1.0000000000e+00 2.0000000000e+00 6.7360864979e-01 -7.0432009475e-01 -2.2401917565e-01 0.0000000000e+00
1620 1.0000000000e+00 1.0000000000e+00 2.0000000000e+00 7.4971166980e-01 -2.9432304723e-02 -6.6110978786e-01 0.0000000000e+00
1621 1.0000000000e+00 1.0000000000e+00 2.0000000000e+00 5.3963931529e-01 8.0291456706e-01 2.5321454813e-01 -0.0000000000e+00
1622 1.0000000000e+00 1.0000000000e+00 2.0000000000e+00 1.3971553050e-01 2.5048809511e-01 9.5798501280e-01 -0.0000000000e+00
1623 1.0000000000e+00 1.0000000000e+00 2.0000000000e+00 6.9083246205e-01 6.9956467653e-01 -1.8264657875e-01 0.0000000000e+00
1624 1.0000000000e+00 1.0000000000e+00 2.0000000000e+00 2.5689613892e-02 -4.7346562028e-01 -8.8043759015e-01 0.0000000000e+00
1625 1.0000000000e+00 1.0000000000e+00 2.0000000000e+00 4.3304503096e-01 4.3057931542e-01 -7.9187969686e-01 0.0000000000e+00
1626 1.0000000000e+00 1.0000000000e+00 2.0000000000e+00 6.9414974951e-01 -3.0325208559e-01 -6.5283558254e-01 0.0000000000e+00
1627 1.0000000000e+00 1.0000000000e+00 2.0000000000e+00 5.5901710268e-01 -2.0229918792e-01 -8.0409882321e-01 0.0000000000e+00
1628 1.0000000000e+00 1.0000000000e+00 2.0000000000e+00 8.1173831376e-01 -1.2094183502e-01 5.7136151648e-01 0.0000000000e+00
1629 1.0000000000e+00 1.0000000000e+00 2.0000000000e+00 5.6544917563e-01 -2.4424877546e-01 -7.8778789370e-01 0.0000000000e+00
1630 1.0000000000e+00 1.0000000000e+00 2.0000000000e+00 2.0439663628e-01 6.8133900072e-01 -7.0285075313e-01 0.0000000000e+00
1631 1.0000000000e+00 1.0000000000e+00 2.0000000000e+00 8.7382834150e-01 4.6491140602e-01 1.4241283002e-01 -0.0000000000e+00
1632 1.0000000000e+00 1.0000000000e+00 2.0000000000e+00 6.2139542536e-01 8.7335227574e-02 -7.7861433545e-01 0.0000000000e+00
1633 1.0000000000e+00 1.0000000000e+00 2.0000000000e+00 8.9646939301e-01 -4.4056345596e-01 4.7396926706e-02 0.0000000000e+00
1634 1.0000000000e+00 1.0000000000e+00 2.0000000000e+00 9.6262365995e-01 -6.0554243199e-02 2.6398650144e-01 0.0000000000e+00
1635 1.0000000000e+00 1.0000000000e+00 2.0000000000e+00 9.9164988721e-01 -4.3570349130e-02 -1.2137596911e-01 0.0000000000e+00
1636 1.0000000000e+00 1.0000000000e+00 2.0000000000e+00 8.3419361740e-01 3.3277721615e-01 -4.3975030768e-01 0.0000000000e+00
1637 1.0000000000e+00 1.0000000000e+00 2.0000000000e+00 2.6945194998e-01 -9.6244924979e-01 -3.2971021014e-02 0.0000000000e+00
1638 1.0000000000e+00 1.0000000000e+00 2.0000000000e+00 9.4769131590e-01 1.8868111329e-01 -2.5745020344e-01 0.0000000000e+00
1639 1.0000000000e+00 1.0000000000e+00 2.0000000000e+00 6.5737704288e-01 -7.2227217500e-01 -2.1489143470e-01 0.0000000000e+00
1640 1.0000000000e+00 1.0000000000e+00 2.0000000000e+00 7.1881786568e-01 6.3330201481e-01 -2.8675675059e-01 0.0000000000e+00
1641 1.0000000000e+00 1.0000000000e+00 2.0000000000e+00 8.1635981649e-01 1.9534035604e-01 -5.4350602143e-01 0.0000000000e+00
1642 1.0000000000e+00 1.0000000000e+00 2.0000000000e+00 3.2155267790e-01 -8.2064645794e-01 -4.7238042552e-01 0.0000000000e+00
1643 1.0000000000e+00 1.0000000000e+00 2.0000000000e+00 3.6487130238e-01 -3.6221783010e-01 8.5771042681e-01 0.0000000000e+00
1644 1.0000000000e+00 1.0000000000e+00 2.0000000000e+00 9.2605486359e-01 3.7502086885e-01 -4.2210633065e-02 0.0000000000e+00
1645 1.0000000000e+00 1.0000000000e+00 2.0000000000e+00 5.0869560083e-01 -2.6089384926e-01 -8.2046522481e-01 0.0000000000e+00
1646 1.0000000000e+00 1.0000000000e+00 2.0000000000e+00 5.9507611621e-01 -8.0163860825e-01 -5.7096039092e-02 0.0000000000e+00
1647 1.0000000000e+00 1.0000000000e+00 2.0000000000e+00 9.8482196925e-01 1.2731548830e-01 -1.1796802667e-01 0.0000000000e+00
1648 1.0000000000e+00 1.0000000000e+00 2.0000000000e+00 2.9403153198e-01 4.0772275071e-01 -8.6446955803e-01 0.0000000000e+00
1649 1.0000000000e+00 1.0000000000e+00 2.0000000000e+00 4.9115548672e-01 -8.3029289826e-01 -2.6340081807e-01 0.0000000000e+00
1650 1.0000000000e+00 1.0000000000e+00 2.0000000000e+00 3.1858286350e-01 -8.1719117944e-01 4.8031607857e-01 0.0000000000e+00
1651 1.0000000000e+00 1.0000000000e+00 2.0000000000e+00 6.7225063090e-01 -2.6636386177e-02 7.3984430267e-01 0.0000000000e+00
1652 1.0000000000e+00 1.0000000000e+00 2.0000000000e+00 9.3609522593e-01 2.4976378434e-01 2.4767676521e-01 -0.0000000000e+00
1653 1.0000000000e+00 1.0000000000e+00 2.0000000000e+00 9.3400720333e-01 1.1884139167e-01 3.3690839669e-01 -0.0000000000e+00
1654 1.0000000000e+00 1.0000000000e+00 2.0000000000e+00 8.0371759162e-01 2.8906165520e-01 5.2007825604e-01 -0.0000000000e+00
1655 1.0000000000e+00 1.0000000000e+00 2.0000000000e+00 6.9193714656e-01 1.8419375193e-01 6.9806564660e-01 -0.0000000000e+00
1656 1.0000000000e+00 1.0000000000e+00 2.0000000000e+00 3.2415693274e-01 -4.3354871336e-01 -8.4080782352e-01 0.0000000000e+00
1657 1.0000000000e+00 1.0000000000e+00 2.0000000000e+00 7.9842067903e-01 6.0203833593e-01 8.6175032010e-03 -0.0000000000e+00
1658 1.0000000000e+00 1.0000000000e+00 2.0000000000e+00 8.4169404484e-01 3.4635228391e-01 -4.1423571829e-01 0.0000000000e+00
1659 1.0000000000e+00 1.0000000000e+00 2.0000000000e+00 6.0066738594e-01 -2.5624114865e-01 7.5732368589e-01 0.0000000000e+00
1660 1.0000000000e+00 1.0000000000e+00 2.0000000000e+00 3.4942815524e-01 8.5841672931e-01 -3.7552720696e-01 0.0000000000e+00
1661 1.0000000000e+00 1.0000000000e+00 2.0000000000e+00 5.9792745056e-01 7.9278979140e-01 1.1818253052e-01 -0.0000000000e+00
1662 1.0000000000e+00 1.0000000000e+00 2.0000000000e+00 8.6819499891e-01 6.6607380967e-02 4.9173254994e-01 -0.0000000000e+00
1663 1.0000000000e+00 1.0000000000e+00 2.0000000000e+00 9.3782371112e-01 2.5736039961e-01 2.3292125616e-01 -0.0000000000e+00
1664 1.0000000000e+00 1.0000000000e+00 2.0000000000e+00 6.5452354368e-01 -2.5992121691e-01 -7.0995766899e-01 0.0000000000e+00
1665 1.0000000000e+00 1.0000000000e+00 2.0000000000e+00 4.3389944924e-01 2.2872379811e-01 -8.7144517448e-01 0.0000000000e+00
1666 1.0000000000e+00 1.0000000000e+00 2.0000000000e+00 4.1363573491e-01 4.4889051039e-01 7.9208761415e-01 -0.0000000000e+00
1667 1.0000000000e+00 1.0000000000e+00 2.0000000000e+00 7.3357938306e-01 4.5676129931e-02 6.7806709100e-01 -0.0000000000e+00
1668 1.0000000000e+00 1.0000000000e+00 2.0000000000e+00 8.6063851753e-01 -1.2694900162e-01 -4.9313820896e-01 0.0000000000e+00
1669 1.0000000000e+00 1.0000000000e+00 2.0000000000e+00 5.1930088317e-01 -7.8112077165e-01 -3.4666544799e-01 0.0000000000e+00
1670 1.0000000000e+00 1.0000000000e+00 2.0000000000e+00 5.6681911884e-01 -4.5280927458e-01 6.8824403185e-01 0.0000000000e+00
1671 1.0000000000e+00 1.0000000000e+00 2.0000000000e+00 3.4152640907e-01 2.9817482329e-01 -8.9132008093e-01 0.0000000000e+00
1672 1.0000000000e+00 1.0000000000e+00 2.0000000000e+00 4.4855695576e-01 -8.5297561902e-01 2.6688808665e-01 0.0000000000e+00
1673 1.0000000000e+00 1.0000000000e+00 2.0000000000e+00 2.7978455830e-01 6.2383268678e-01 -7.2976255031e-01 0.0000000000e+00
1674 1.0000000000e+00 1.0000000000e+00 2.0000000000e+00 1.8870268376e-01 7.6683555910e-01 -6.1347740174e-01 0.0000000000e+00
1675 1.0000000000e+00 1.0000000000e+00 2.0000000000e+00 9.4430825684e-01 2.2862589194e-01 2.3666879304e-01 -0.0000000000e+00
1676 1.0000000000e+00 1.0000000000e+00 2.0000000000e+00 9.2721672299e-01 -2.6853053451e-01 -2.6107566075e-01 0.0000000000e+00
1677 1.0000000000e+00 1.0000000000e+00 2.0000000000e+00 5.7645926438e-01 5.7870266793e-01 5.7688641745e-01 -0.0000000000e+00
1678 1.0000000000e+00 1.0000000000e+00 2.0000000000e+00 5.4543079803e-01 -6.5997019606e-01 5.1666680257e-01 0.0000000000e+00
1679 1.0000000000e+00 1.0000000000e+00 2.0000000000e+00 9.6886145502e-01 -2.1739633310e-01 1.1851715206e-01 0.0000000000e+00
1680 1.0000000000e+00 1.0000000000e+00 2.0000000000e+00 6.2963816159e-01 3.2097505716e-01 -7.0748201260e-01 0.0000000000e+00
1681 1.0000000000e+00 1.0000000000e+00 2.0000000000e+00 5.1940627230e-01 4.9248991380e-01 6.9833431041e-01 -0.0000000000e+00
1682 1.0000000000e+00 1.0000000000e+00 2.0000000000e+00 9.4021351673e-01 -2.1284819747e-01 -2.6588378626e-01 0.0000000000e+00
1683 1.0000000000e+00 1.0000000000e+00 2.0000000000e+00 8.6421301771e-01 -3.8564953100e-02 5.0164589543e-01 0.0000000000e+00
1684 1.0000000000e+00 1.0000000000e+00 2.0000000000e+00 5.8776227902e-01 7.4095529175e-01 -3.2483958963e-01 0.0000000000e+00
1685 1.0000000000e+00 1.0000000000e+00 2.0000000000e+00 6.2727594744e-01 -7.0077783325e-01 -3.3975772868e-01 0.0000000000e+00
1686 1.0000000000e+00 1.0000000000e+00 2.0000000000e+00 9.8802243417e-01 1.4716542458e-01 -4.6411285117e-02 0.0000000000e+00
1687 1.0000000000e+00 1.0000000000e+00 2.0000000000e+00 4.0798601379e-01 9.0495969308e-01 -1.2081128448e-01 0.0000000000e+00
1688 1.0000000000e+00 1.0000000000e+00 2.0000000000e+00 3.0830055228e-01 -2.9336433049e-01 -9.0492438306e-01 0.0000000000e+00
1689 1.0000000000e+00 1.0000000000e+00 2.0000000000e+00 6.7510226061e-01 -7.1790297954e-01 1.6985949988e-01 0.0000000000e+00
1690 1.0000000000e+00 1.0000000000e+00 2.0000000000e+00 7.5110598463e-01 -6.3466135050e-01 -1.8178220493e-01 0.0000000000e+00
1691 1.0000000000e+00 1.0000000000e+00 2.0000000000e+00 8.3125099699e-01 5.5368412243e-01 -4.9554743186e-02 0.0000000000e+00
1692 1.0000000000e+00 1.0000000000e+00 2.0000000000e+00 8.4185926711e-01 5.3174836923e-01 9.2285677058e-02 -0.0000000000e+00
1693 1.0000000000e+00 1.0000000000e+00 2.0000000000e+00 4.5058544747e-01 -6.5406289260e-01 -6.0759730665e-01 0.0000000000e+00
1694 1.0000000000e+00 1.0000000000e+00 2.0000000000e+00 9.1479523244e-02 4.9079761622e-01 -8.6645784476e-01 0.0000000000e+00
1695 1.0000000000e+00 1.0000000000e+00 2.0000000000e+00 7.3924267422e-01 -4.6943501697e-01 -4.8285715636e-01 0.0000000000e+00
1696 1.0000000000e+00 1.0000000000e+00 2.0000000000e+00 9.0484887177e-01 4.1722816410e-01 8.4671000587e-02 -0.0000000000e+00
1697 1.0000000000e+00 1.0000000000e+00 2.0000000000e+00 9.7117353488e-01 2.2195136508e-01 -8.6945711172e-02 0.0000000000e+00
1698 1.0000000000e+00 1.0000000000e+00 2.0000000000e+00 2.4053564887e-01 -1.6747964732e-01 9.5608219801e-01 0.0000000000e+00
1699 1.0000000000e+00 1.0000000000e+00 2.0000000000e+00 6.3776912822e-01 -3.5151496121e-01 6.8533770590e-01 0.0000000000e+00
1700 1.0000000000e+00 1.0000000000e+00 2.0000000000e+00 8.6704190961e-01 1.8791014908e-01 4.6144133197e-01 -0.0000000000e+00
1701 1.0000000000e+00 1.0000000000e+00 2.0000000000e+00 9.1341425618e-01 -3.4460185735e-01 -2.1661938168e-01 0.0000000000e+00
1702 1.0000000000e+00 1.0000000000e+00 2.0000000000e+00 6.2709981552e-01 -6.8704595375e-01 3.6703362083e-01 0.0000000000e+00
1703 1.0000000000e+00 1.0000000000e+00 2.0000000000e+00 8.1784719553e-01 -2.9438960959e-01 4.9442969421e-01 0.0000000000e+00
1704 1.0000000000e+00 1.0000000000e+00 2.0000000000e+00 6.3836618705e-01 7.4716556277e-01 -1.8501954775e-01 0.0000000000e+00
1705 1.0000000000e+00 1.0000000000e+00 2.0000000000e+00 8.4066535180e-01 -3.4480265478e-01 -4.1760375422e-01 0.0000000000e+00
1706 1.0000000000e+00 1.0000000000e+00 2.0000000000e+00 9.0831805997e-01 -3.4771606414e-01 -2.3249051738e-01 0.0000000000e+00
1707 1.0000000000e+00 1.0000000000e+00 2.0000000000e+00 4.1217937522e-01 -2.3171325825e-01 8.8114535043e-01 0.0000000000e+00
1708 1.0000000000e+00 1.0000000000e+00 2.0000000000e+00 5.2236129062e-01 8.5180500863e-01 3.9584205605e-02 -0.0000000000e+00
1709 1.0000000000e+00 1.0000000000e+00 2.0000000000e+00 9.7252093081e-01 -2.1369931079e-01 -9.2388547515e-02 0.0000000000e+00
1710 1.0000000000e+00 1.0000000000e+00 2.0000000000e+00 8.7730536474e-01 3.7570750723e-01 2.9862880974e-01 -0.0000000000e+00
1711 1.0000000000e+00 1.0000000000e+00 2.0000000000e+00 9.4280088973e-01 -3.3310050655e-01 -1.3058899876e-02 0.0000000000e+00
1712 1.0000000000e+00 1.0000000000e+00 2.0000000000e+00 5.2447085823e-01 2.6823894493e-01 -8.0807065737e-01 0.0000000000e+00
1713 1.0000000000e+00 1.0000000000e+00 2.0000000000e+00 8.2616839263e-01 -5.1242349421e-01 2.3423908639e-01 0.0000000000e+00
1714 1.0000000000e+00 1.0000000000e+00 2.0000000000e+00 6.8507823773e-01 6.6548251766e-01 2.9631204307e-01 -0.0000000000e+00
1715 1.0000000000e+00 1.0000000000e+00 2.0000000000e+00 4.2196276627e-01 -8.5750558582e-01 2.9433245516e-01 0.0000000000e+00
1716 1.0000000000e+00 1.0000000000e+00 2.0000000000e+00 7.2090297428e-01 -6.1645916661e-01 3.1666543477e-01 0.0000000000e+00
1717 1.0000000000e+00 1.0000000000e+00 2.0000000000e+00 8.6558747628e-01 6.5219845138e-02 -4.9649238938e-01 0.0000000000e+00
1718 1.0000000000e+00 1.0000000000e+00 2.0000000000e+00 1.2702488768e-01 9.8746766629e-01 -9.3660482300e-02 0.0000000000e+00
1719 1.0000000000e+00 1.0000000000e+00 2.0000000000e+00 8.7820162975e-01 -4.5267053943e-01 -1.5443859699e-01 0.0000000000e+00
1720 1.0000000000e+00 1.0000000000e+00 2.0000000000e+00 8.3112088625e-01 5.5565766539e-01 2.1968871885e-02 -0.0000000000e+00
1721 1.0000000000e+00 1.0000000000e+00 2.0000000000e+00 7.1735250040e-01 -2.8421284384e-01 6.3610411849e-01 0.0000000000e+00
1722 1.0000000000e+00 1.0000000000e+00 2.0000000000e+00 7.7174777879e-01 -3.8934315985e-01 -5.0280937721e-01 0.0000000000e+00
1723 1.0000000000e+00 1.0000000000e+00 2.0000000000e+00 3.9533165568e-01 -7.0038344775e-01 5.9428604908e-01 0.0000000000e+00
1724 1.0000000000e+00 1.0000000000e+00 2.0000000000e+00 7.4410442180e-01 -1.9776526503e-01 6.3812029383e-01 0.0000000000e+00
1725 1.0000000000e+00 1.0000000000e+00 2.0000000000e+00 1.9757957575e-01 -9.3791502382e-01 2.8509247508e-01 0.0000000000e+00
1726 1.0000000000e+00 1.0000000000e+00 2.0000000000e+00 3.2504723076e-01 1.7088558799e-01 9.3013032076e-01 -0.0000000000e+00
1727 1.0000000000e+00 1.0000000000e+00 2.0000000000e+00 4.2209469843e-01 -8.7361396286e-01 -2.4214604985e-01 0.0000000000e+00
1728 1.0000000000e+00 1.0000000000e+00 2.0000000000e+00 3.7806338838e-01 5.5625378560e-01 -7.4003364814e-01 0.0000000000e+00
1729 1.0000000000e+00 1.0000000000e+00 2.0000000000e+00 8.4748955403e-01 -9.1552750443e-02 5.2285710256e-01 0.0000000000e+00
1730 1.0000000000e+00 1.0000000000e+00 2.0000000000e+00 6.1160616783e-01 7.9038137531e-01 3.5145085584e-02 -0.0000000000e+00
1731 1.0000000000e+00 1.0000000000e+00 2.0000000000e+00 3.0595820328e-01 -8.5522287275e-01 -4.1831019085e-01 0.0000000000e+00
1732 1.0000000000e+00 1.0000000000e+00 2.0000000000e+00 8.3257286805e-01 7.6887658810e-02 -5.4855328575e-01 0.0000000000e+00
1733 1.0000000000e+00 1.0000000000e+00 2.0000000000e+00 8.0881211623e-01 -3.7455817758e-01 4.5335320915e-01 0.0000000000e+00
1734 1.0000000000e+00 1.0000000000e+00 2.0000000000e+00 9.0931704421e-01 3.2116516109e-01 -2.6456653684e-01 0.0000000000e+00
1735 1.0000000000e+00 1.0000000000e+00 2.0000000000e+00 7.1524749400e-01 6.3936834658e-01 -2.8218635636e-01 0.0000000000e+00
1736 1.0000000000e+00 1.0000000000e+00 2.0000000000e+00 8.0856894946e-01 -5.6370972308e-01 1.6866416949e-01 0.0000000000e+00
1737 1.0000000000e+00 1.0000000000e+00 2.0000000000e+00 4.3301786787e-01 -8.6856256800e-01 -2.4102819664e-01 0.0000000000e+00
1738 1.0000000000e+00 1.0000000000e+00 2.0000000000e+00 2.8761356515e-01 -1.1567879730e-01 -9.5073490153e-01 0.0000000000e+00
1739 1.0000000000e+00 1.0000000000e+00 2.0000000000e+00 3.5713325465e-01 8.7825157266e-01 3.1800945511e-01 -0.0000000000e+00
1740 1.0000000000e+00 1.0000000000e+00 2.0000000000e+00 8.8441483284e-01 -2.7705108966e-01 -3.7557036249e-01 0.0000000000e+00
1741 1.0000000000e+00 1.0000000000e+00 2.0000000000e+00 4.5459694321e-01 -8.3029193203e-01 3.2242352090e-01 0.0000000000e+00
1742 1.0000000000e+00 1.0000000000e+00 2.0000000000e+00 4.3338595980e-01 -8.4719434970e-01 3.0730822262e-01 0.0000000000e+00
1743 1.0000000000e+00 1.0000000000e+00 2.0000000000e+00 2.4797040864e-01 -6.3472681572e-01 -7.3186921362e-01 0.0000000000e+00
1744 1.0000000000e+00 1.0000000000e+00 2.0000000000e+00 8.3952828366e-01 5.4094409990e-01 5.0712342870e-02 -0.0000000000e+00
1745 1.0000000000e+00 1.0000000000e+00 2.0000000000e+00 6.6154668039e-01 5.7421149835e-01 -4.8232472966e-01 0.0000000000e+00
1746 1.0000000000e+00 1.0000000000e+00 2.0000000000e+00 8.6982058849e-01 7.2448839799e-02 4.8801978387e-01 -0.0000000000e+00
1747 1.0000000000e+00 1.0000000000e+00 2.0000000000e+00 9.4718605653e-01 -3.0930707517e-01 -8.4662314861e-02 0.0000000000e+00
1748 1.0000000000e+00 1.0000000000e+00 2.0000000000e+00 6.9585704331e-01 4.0252176384e-01 5.9477660084e-01 -0.0000000000e+00
1749 1.0000000000e+00 1.0000000000e+00 2.0000000000e+00 3.0565237528e-01 -1.8000667178e-01 -9.3497284645e-01 0.0000000000e+00
1750 1.0000000000e+00 1.0000000000e+00 2.0000000000e+00 2.8432303897e-01 -4.8991517829e-01 8.2410164882e-01 0.0000000000e+00
1751 1.0000000000e+00 1.0000000000e+00 2.0000000000e+00 5.1231163228e-01 7.5204592005e-01 -4.1468509205e-01 0.0000000000e+00
1752 1.0000000000e+00 1.0000000000e+00 2.0000000000e+00 9.7669628933e-01 1.0004233810e-01 1.8988388295e-01 -0.0000000000e+00
1753 1.0000000000e+00 1.0000000000e+00 2.0000000000e+00 8.5935846040e-01 5.1103395701e-01 1.8636826889e-02 -0.0000000000e+00
1754 1.0000000000e+00 1.0000000000e+00 2.0000000000e+00 8.6312803950e-01 5.0495072412e-01 -5.8952217737e-03 0.0000000000e+00
1755 1.0000000000e+00 1.0000000000e+00 2.0000000000e+00 9.5226718886e-01 -2.9373147793e-01 -8.3120514283e-02 0.0000000000e+00
1756 1.0000000000e+00 1.0000000000e+00 2.0000000000e+00 2.9985873603e-01 9.5240967934e-01 5.4777195272e-02 -0.0000000000e+00
1757 1.0000000000e+00 1.0000000000e+00 2.0000000000e+00 6.6691146791e-01 -7.4500518004e-01 1.4013410896e-02 0.0000000000e+00
1758 1.0000000000e+00 1.0000000000e+00 2.0000000000e+00 6.7357827710e-01 7.0786479918e-01 2.1264931389e-01 -0.0000000000e+00
1759 1.0000000000e+00 1.0000000000e+00 2.0000000000e+00 9.5871767531e-01 -2.8712836131e-02 2.8290633093e-01 0.0000000000e+00
1760 1.0000000000e+00 1.0000000000e+00 2.0000000000e+00 4.1272726358e-01 9.0897571311e-01 5.8475284304e-02 -0.0000000000e+00
1761 1.0000000000e+00 1.0000000000e+00 2.0000000000e+00 5.5415727381e-01 -1.8776549170e-01 8.1095859081e-01 0.0000000000e+00
1762 1.0000000000e+00 1.0000000000e+00 2.0000000000e+00 4.1827840601e-01 -6.5403959499e-02 -9.0596109031e-01 0.0000000000e+00
1763 1.0000000000e+00 1.0000000000e+00 2.0000000000e+00 5.1522154929e-01 6.0226949675e-01 6.0976897956e-01 -0.0000000000e+00
1764 1.0000000000e+00 1.0000000000e+00 2.0000000000e+00 9.1740328475e-01 -3.9497056103e-01 4.8677192346e-02 0.0000000000e+00
1765 1.0000000000e+00 1.0000000000e+00 2.0000000000e+00 6.2036763442e-01 -7.7670915757e-01 -1.0893522250e-01 0.0000000000e+00
1766 1.0000000000e+00 1.0000000000e+00 2.0000000000e+00 8.2282238231e-01 5.5772659604e-03 -5.6827125677e-01 0.0000000000e+00
1767 1.0000000000e+00 1.0000000000e+00 2.0000000000e+00 7.3208458759e-01 -2.4929734711e-01 -6.3395819210e-01 0.0000000000e+00
1768 1.0000000000e+00 1.0000000000e+00 2.0000000000e+00 8.6518799410e-01 1.4755775599e-01 -4.7924570265e-01 0.0000000000e+00
1769 1.0000000000e+00 1.0000000000e+00 2.0000000000e+00 7.1003049737e-01 -4.3428039192e-01 5.5430788737e-01 0.0000000000e+00
1770 1.0000000000e+00 1.0000000000e+00 2.0000000000e+00 9.0964681837e-01 3.7402911113e-01 1.8067896903e-01 -0.0000000000e+00
1771 1.0000000000e+00 1.0000000000e+00 2.0000000000e+00 8.6954639378e-01 -1.2121028589e-01 -4.7874537665e-01 0.0000000000e+00
1772 1.0000000000e+00 1.0000000000e+00 2.0000000000e+00 9.3336219614e-01 3.1312638456e-01 1.7546189933e-01 -0.0000000000e+00
1773 1.0000000000e+00 1.0000000000e+00 2.0000000000e+00 8.7169836778e-01 3.7123254111e-01 -3.1988803671e-01 0.0000000000e+00
1774 1.0000000000e+00 1.0000000000e+00 2.0000000000e+00 8.8982819542e-01 2.9879378235e-01 -3.4485947610e-01 0.0000000000e+00
1775 1.0000000000e+00 1.0000000000e+00 2.0000000000e+00 3.9850891625e-01 5.1119877008e-01 7.6148963298e-01 -0.0000000000e+00
1776 1.0000000000e+00 1.0000000000e+00 2.0000000000e+00 8.0871174323e-01 4.2138465849e-01 4.1039040675e-01 -0.0000000000e+00
1777 1.0000000000e+00 1.0000000000e+00 2.0000000000e+00 8.7170656376e-01 1.0464620703e-01 -4.7872417742e-01 0.0000000000e+00
1778 1.0000000000e+00 1.0000000000e+00 2.0000000000e+00 1.8563991779e-01 7.7556805032e-01 6.0335066110e-01 -0.0000000000e+00
1779 1.0000000000e+00 1.0000000000e+00 2.0000000000e+00 1.7027394629e-01 -4.3924183884e-02 9.8441731460e-01 0.0000000000e+00
1780 1.0000000000e+00 1.0000000000e+00 2.0000000000e+00 5.6299319921e-01 7.6321179148e-01 -3.1709055329e-01 0.0000000000e+00
1781 1.0000000000e+00 1.0000000000e+00 2.0000000000e+00 8.6181845014e-01 3.9970118323e-01 -3.1226258681e-01 0.0000000000e+00
1782 1.0000000000e+00 1.0000000000e+00 2.0000000000e+00 3.4571604629e-01 -5.5393415003e-01 7.5738852168e-01 0.0000000000e+00
1783 1.0000000000e+00 1.0000000000e+00 2.0000000000e+00 6.9472429424e-01 6.9991888697e-01 1.6574590990e-01 -0.0000000000e+00
1784 1.0000000000e+00 1.0000000000e+00 2.0000000000e+00 9.5673889798e-01 -2.9044077050e-01 1.7170903084e-02 0.0000000000e+00
1785 1.0000000000e+00 1.0000000000e+00 2.0000000000e+00 9.0260088682e-01 2.2797886914e-01 -3.6515376808e-01 0.0000000000e+00
1786 1.0000000000e+00 1.0000000000e+00 2.0000000000e+00 6.7539354539e-01 -7.2576107699e-01 1.3082208520e-01 0.0000000000e+00
1787 1.0000000000e+00 1.0000000000e+00 2.0000000000e+00 7.8105308685e-01 -1.3749703793e-01 -6.0913926164e-01 0.0000000000e+00
1788 1.0000000000e+00 1.0000000000e+00 2.0000000000e+00 6.2688775864e-01 -6.9108214792e-01 -3.5974602555e-01 0.0000000000e+00
1789 1.0000000000e+00 1.0000000000e+00 2.0000000000e+00 4.9870474630e-01 3.5169127549e-01 7.9221639895e-01 -0.0000000000e+00
1790 1.0000000000e+00 1.0000000000e+00 2.0000000000e+00 9.9253372345e-01 1.1896042733e-01 -2.6929993506e-02 0.0000000000e+00
1791 1.0000000000e+00 1.0000000000e+00 2.0000000000e+00 6.6731263814e-01 8.5768058348e-02 -7.3982273766e-01 0.0000000000e+00
1792 1.0000000000e+00 1.0000000000e+00 2.0000000000e+00 4.5037200640e-01 7.9682048924e-01 4.0279295398e-01 -0.0000000000e+00
1793 1.0000000000e+00 1.0000000000e+00 2.0000000000e+00 2.7556234537e-01 -5.3660144151e-01 -7.9757400082e-01 0.0000000000e+00
1794 1.0000000000e+00 1.0000000000e+00 2.0000000000e+00 4.8307594614e-01 -2.9969425233e-01 8.2269130625e-01 0.0000000000e+00
1795 1.0000000000e+00 1.0000000000e+00 2.0000000000e+00 9.3941612085e-01 2.8911973775e-01 1.8413888545e-01 -0.0000000000e+00
1796 1.0000000000e+00 1.0000000000e+00 2.0000000000e+00 7.6645363780e-01 5.5642739154e-01 3.2083855604e-01 -0.0000000000e+00
1797 1.0000000000e+00 1.0000000000e+00 2.0000000000e+00 8.8519298789e-01 4.1372118002e-01 2.1276315329e-01 -0.0000000000e+00
1798 1.0000000000e+00 1.0000000000e+00 2.0000000000e+00 6.8006579320e-01 -9.7442528045e-02 7.2664673030e-01 0.0000000000e+00
1799 1.0000000000e+00 1.0000000000e+00 2.0000000000e+00 6.6236688591e-01 5.0390384069e-01 -5.5439248533e-01 0.0000000000e+00
1800 1.0000000000e+00 1.0000000000e+00 2.0000000000e+00 4.5351825578e-01 -8.7849001660e-01 -1.5025472508e-01 0.0000000000e+00
1801 1.0000000000e+00 1.0000000000e+00 2.0000000000e+00 7.3884202951e-01 -4.9709753799e-01 4.5497966236e-01 0.0000000000e+00
1802 1.0000000000e+00 1.0000000000e+00 2.0000000000e+00 5.2525380446e-01 -2.8451820106e-01 -8.0197121779e-01 0.0000000000e+00
1803 1.0000000000e+00 1.0000000000e+00 2.0000000000e+00 5.8621287693e-01 2.6938977860e-01 7.6405733431e-01 -0.0000000000e+00
1804 1.0000000000e+00 1.0000000000e+00 2.0000000000e+00 7.1031868969e-01 -5.0727850452e-02 -7.0204988730e-01 0.0000000000e+00
1805 1.0000000000e+00 1.0000000000e+00 2.0000000000e+00 7.2368792995e-01 5.8371979602e-01 -3.6816705418e-01 0.0000000000e+00
1806 1.0000000000e+00 1.0000000000e+00 2.0000000000e+00 5.5931142583e-01 -1.1541466374e-01 -8.2088378248e-01 0.0000000000e+00
1807 1.0000000000e+00 1.0000000000e+00 2.0000000000e+00 9.9729936538e-01 1.9521313379e-02 -7.0801794687e-02 0.0000000000e+00
1808 1.0000000000e+00 1.0000000000e+00 2.0000000000e+00 5.6299884588e-01 3.5207924038e-01 7.4771151391e-01 -0.0000000000e+00
1809 1.0000000000e+00 1.0000000000e+00 2.0000000000e+00 7.2558230250e-01 8.5240330139e-02 -6.8283556470e-01 0.0000000000e+00
1810 1.0000000000e+00 1.0000000000e+00 2.0000000000e+00 7.6455227844e-01 -9.3347477809e-02 6.3776646347e-01 0.0000000000e+00
1811 1.0000000000e+00 1.0000000000e+00 2.0000000000e+00 9.5309595135e-01 2.6180862576e-01 -1.5186951962e-01 0.0000000000e+00
1812 1.0000000000e+00 1.0000000000e+00 2.0000000000e+00 7.2734838261e-01 2.9061457026e-01 6.2169727510e-01 -0.0000000000e+00
1813 1.0000000000e+00 1.0000000000e+00 2.0000000000e+00 6.6386601791e-01 -7.0798749688e-01 2.4090582085e-01 0.0000000000e+00
1814 1.0000000000e+00 1.0000000000e+00 2.0000000000e+00 7.9714222818e-01 -5.8471837080e-01 -1.5056126627e-01 0.0000000000e+00
1815 1.0000000000e+00 1.0000000000e+00 2.0000000000e+00 3.9082099659e-01 -5.7849588212e-01 7.1596191448e-01 0.0000000000e+00
1816 1.0000000000e+00 1.0000000000e+00 2.0000000000e+00 6.3704881243e-01 4.0978622299e-01 6.5287369531e-01 -0.0000000000e+00
1817 1.0000000000e+00 1.0000000000e+00 2.0000000000e+00 6.5569304819e-01 7.4493830231e-01 1.2301850393e-01 -0.0000000000e+00
1818 1.0000000000e+00 1.0000000000e+00 2.0000000000e+00 7.9118940087e-01 -1.8400705931e-01 -5.8323300153e-01 0.0000000000e+00
1819 1.0000000000e+00 1.0000000000e+00 2.0000000000e+00 6.2652215496e-01 -7.4508312973e-01 -2.2873810163e-01 0.0000000000e+00
1820 1.0000000000e+00 1.0000000000e+00 2.0000000000e+00 8.9348004092e-01 3.7748779151e-01 -2.4330306971e-01 0.0000000000e+00
1821 1.0000000000e+00 1.0000000000e+00 2.0000000000e+00 7.0296890727e-01 -3.8229900656e-01 5.9973509569e-01 0.0000000000e+00
1822 1.0000000000e+00 1.0000000000e+00 2.0000000000e+00 4.6972135403e-01 8.8264172607e-01 1.7476640935e-02 -0.0000000000e+00
1823 1.0000000000e+00 1.0000000000e+00 2.0000000000e+00 9.5729646701e-01 -4.0451983870e-02 2.8626405862e-01 0.0000000000e+00
1824 1.0000000000e+00 1.0000000000e+00 2.0000000000e+00 7.6457692861e-01 5.4355662660e-01 3.4636442358e-01 -0.0000000000e+00
1825 1.0000000000e+00 1.0000000000e+00 2.0000000000e+00 4.6089457956e-01 7.2824700892e-01 -5.0718091498e-01 0.0000000000e+00
1826 1.0000000000e+00 1.0000000000e+00 2.0000000000e+00 4.2533461572e-01 -4.0594602583e-01 8.0888706800e-01 0.0000000000e+00
1827 1.0000000000e+00 1.0000000000e+00 2.0000000000e+00 9.0699855765e-01 -4.1301229138e-01 8.2307129581e-02 0.0000000000e+00
1828 1.0000000000e+00 1.0000000000e+00 2.0000000000e+00 8.3384962893e-01 5.4346762414e-01 -9.6631971114e-02 0.0000000000e+00
1829 1.0000000000e+00 1.0000000000e+00 2.0000000000e+00 2.8458668492e-01 2.5757093374e-01 -9.2340003945e-01 0.0000000000e+00
1830 1.0000000000e+00 1.0000000000e+00 2.0000000000e+00 7.1389761551e-01 -6.3975921035e-01 -2.8470747679e-01 0.0000000000e+00
1831 1.0000000000e+00 1.0000000000e+00 2.0000000000e+00 9.3421863692e-01 -3.5509741148e-01 3.3784120430e-02 0.0000000000e+00
1832 1.0000000000e+00 1.0000000000e+00 2.0000000000e+00 8.0295505815e-01 -4.4949951055e-01 3.9142478794e-01 0.0000000000e+00
1833 1.0000000000e+00 1.0000000000e+00 2.0000000000e+00 6.3272565759e-01 2.6018188314e-01 7.2935836864e-01 -0.0000000000e+00
1834 1.0000000000e+00 1.0000000000e+00 2.0000000000e+00 5.2137804111e-01 2.7183563228e-01 8.0886978388e-01 -0.0000000000e+00
1835 1.0000000000e+00 1.0000000000e+00 2.0000000000e+00 9.4906913027e-01 -1.7972396851e-01 -2.5877998591e-01 0.0000000000e+00
1836 1.0000000000e+00 1.0000000000e+00 2.0000000000e+00 9.4091546965e-01 -3.3511517601e-01 4.8743181939e-02 0.0000000000e+00
1837 1.0000000000e+00 1.0000000000e+00 2.0000000000e+00 8.3952612665e-01 -4.6095024279e-01 2.8761216306e-01 0.0000000000e+00
1838 1.0000000000e+00 1.0000000000e+00 2.0000000000e+00 8.0637449964e-01 -5.1038858009e-01 2.9877025227e-01 0.0000000000e+00
1839 1.0000000000e+00 1.0000000000e+00 2.0000000000e+00 7.1491662763e-01 -6.3002870065e-01 3.0324586047e-01 0.0000000000e+00
1840 1.0000000000e+00 1.0000000000e+00 2.0000000000e+00 9.7021436725e-01 2.4215661287e-01 -6.6525496950e-03 0.0000000000e+00
1841 1.0000000000e+00 1.0000000000e+00 2.0000000000e+00 6.2259164415e-01 7.8172835682e-01 -3.5782967814e-02 0.0000000000e+00
1842 1.0000000000e+00 1.0000000000e+00 2.0000000000e+00 5.0037285315e-01 7.0073234697e-01 5.0852845126e-01 -0.0000000000e+00
1843 1.0000000000e+00 1.0000000000e+00 2.0000000000e+00 5.8122108798e-01 -1.1264419232e-01 8.0591149193e-01 0.0000000000e+00
1844 1.0000000000e+00 1.0000000000e+00 2.0000000000e+00 2.2124420483e-01 -3.4695800726e-01 -9.1141162107e-01 0.0000000000e+00
1845 1.0000000000e+00 1.0000000000e+00 2.0000000000e+00 8.4986319862e-01 -1.3376531350e-02 5.2683357148e-01 0.0000000000e+00
1846 1.0000000000e+00 1.0000000000e+00 2.0000000000e+00 7.3199951366e-01 6.4749169730e-01 2.1196984205e-01 -0.0000000000e+00
1847 1.0000000000e+00 1.0000000000e+00 2.0000000000e+00 7.5158938384e-01 -3.4206170511e-01 5.6400991834e-01 0.0000000000e+00
1848 1.0000000000e+00 1.0000000000e+00 2.0000000000e+00 9.6637673789e-01 2.1319102555e-01 1.4375530285e-01 -0.0000000000e+00
1849 1.0000000000e+00 1.0000000000e+00 2.0000000000e+00 9.0767835731e-01 7.3220896369e-02 4.1322959720e-01 -0.0000000000e+00
1850 1.0000000000e+00 1.0000000000e+00 2.0000000000e+00 8.9094253525e-01 1.5371927549e-01 4.2730759790e-01 -0.0000000000e+00
1851 1.0000000000e+00 1.0000000000e+00 2.0000000000e+00 8.0521911632e-01 -5.2654010339e-01 -2.7272274244e-01 0.0000000000e+00
1852 1.0000000000e+00 1.0000000000e+00 2.0000000000e+00 5.2462357695e-01 8.3094698752e-01 1.8519504974e-01 -0.0000000000e+00
1853 1.0000000000e+00 1.0000000000e+00 2.0000000000e+00 9.4759431941e-01 2.8093201496e-02 -3.1823855495e-01 0.0000000000e+00
1854 1.0000000000e+00 1.0000000000e+00 2.0000000000e+00 6.6962047397e-01 -7.1488276911e-01 -2.0137290599e-01 0.0000000000e+00
1855 1.0000000000e+00 1.0000000000e+00 2.0000000000e+00 9.7704580043e-01 1.7409259245e-01 -1.2277325898e-01 0.0000000000e+00
1856 1.0000000000e+00 1.0000000000e+00 2.0000000000e+00 9.7405856782e-01 1.8747350463e-01 1.2674222470e-01 -0.0000000000e+00
1857 1.0000000000e+00 1.0000000000e+00 2.0000000000e+00 9.3568547876e-01 2.6508543752e-01 2.3285702837e-01 -0.0000000000e+00
1858 1.0000000000e+00 1.0000000000e+00 2.0000000000e+00 5.7770802097e-01 9.2846945269e-03 8.1619068664e-01 -0.0000000000e+00
1859 1.0000000000e+00 1.0000000000e+00 2.0000000000e+00 5.7395440718e-01 4.9408991875e-01 6.5303253415e-01 -0.0000000000e+00
1860 1.0000000000e+00 1.0000000000e+00 2.0000000000e+00 9.7766268036e-01 1.8272400443e-01 -1.0386347596e-01 0.0000000000e+00
1861 1.0000000000e+00 1.0000000000e+00 2.0000000000e+00 9.6517176934e-01 1.8437961509e-01 -1.8560068216e-01 0.0000000000e+00
1862 1.0000000000e+00 1.0000000000e+00 2.0000000000e+00 9.6792790768e-01 7.2903670474e-02 2.4041759579e-01 -0.0000000000e+00
1863 1.0000000000e+00 1.0000000000e+00 2.0000000000e+00 8.8444974239e-01 -2.1596246416e-01 -4.1365307597e-01 0.0000000000e+00
1864 1.0000000000e+00 1.0000000000e+00 2.0000000000e+00 9.7999566566e-01 1.8139914757e-01 -8.1870901730e-02 0.0000000000e+00
1865 1.0000000000e+00 1.0000000000e+00 2.0000000000e+00 6.3610510393e-01 7.7156807420e-01 -7.2803591264e-03 0.0000000000e+00
1866 1.0000000000e+00 1.0000000000e+00 2.0000000000e+00 5.5061772858e-01 2.4224123513e-01 7.9883621662e-01 -0.0000000000e+00
1867 1.0000000000e+00 1.0000000000e+00 2.0000000000e+00 7.8239489234e-01 1.5596209955e-01 -6.0293785413e-01 0.0000000000e+00
1868 1.0000000000e+00 1.0000000000e+00 2.0000000000e+00 9.8530550527e-01 -3.1379434062e-02 1.6789399154e-01 0.0000000000e+00
1869 1.0000000000e+00 1.0000000000e+00 2.0000000000e+00 8.8799511066e-01 -2.7799166397e-01 -3.6631314226e-01 0.0000000000e+00
1870 1.0000000000e+00 1.0000000000e+00 2.0000000000e+00 3.1600367185e-01 7.1542361529e-01 -6.2314583370e-01 0.0000000000e+00
1871 1.0000000000e+00 1.0000000000e+00 2.0000000000e+00 1.3901648872e-01 3.8273204686e-01 -9.1334035068e-01 0.0000000000e+00
1872 1.0000000000e+00 1.0000000000e+00 2.0000000000e+00 5.9993234894e-01 -7.4947991910e-01 2.7993039771e-01 0.0000000000e+00
1873 1.0000000000e+00 1.0000000000e+00 2.0000000000e+00 5.9089590918e-01 -5.3429459812e-01 6.0445951638e-01 0.0000000000e+00
1874 1.0000000000e+00 1.0000000000e+00 2.0000000000e+00 6.6451593962e-01 5.7013488803e-01 -4.8307843613e-01 0.0000000000e+00
1875 1.0000000000e+00 1.0000000000e+00 2.0000000000e+00 3.8090350115e-01 9.0847410411e-01 1.7200966533e-01 -0.0000000000e+00
1876 1.0000000000e+00 1.0000000000e+00 2.0000000000e+00 9.1496474794e-01 -1.4104294484e-01 -3.7808252768e-01 0.0000000000e+00
1877 1.0000000000e+00 1.0000000000e+00 2.0000000000e+00 5.4623830008e-02 -3.1090040975e-01 -9.4887152577e-01 0.0000000000e+00
1878 1.0000000000e+00 1.0000000000e+00 2.0000000000e+00 8.9390774044e-01 -2.3520113875e-01 -3.8158796615e-01 0.0000000000e+00
1879 1.0000000000e+00 1.0000000000e+00 2.0000000000e+00 5.2836431619e-01 -8.3897075130e-01 1.3022760011e-01 0.0000000000e+00
1880 1.0000000000e+00 1.0000000000e+00 2.0000000000e+00 8.2405169135e-01 -1.3376958092e-01 -5.5049478582e-01 0.0000000000e+00
1881 1.0000000000e+00 1.0000000000e+00 2.0000000000e+00 3.3946122125e-01 8.9512901048e-02 -9.3635117334e-01 0.0000000000e+00
1882 1.0000000000e+00 1.0000000000e+00 2.0000000000e+00 5.7734327443e-01 -7.2061326059e-01 -3.8391570968e-01 0.0000000000e+00
1883 1.0000000000e+00 1.0000000000e+00 2.0000000000e+00 5.5012350062e-01 6.3932599049e-01 -5.3723962248e-01 0.0000000000e+00
1884 1.0000000000e+00 1.0000000000e+00 2.0000000000e+00 8.9071296407e-01 -3.3730214763e-01 3.0472557628e-01 0.0000000000e+00
1885 1.0000000000e+00 1.0000000000e+00 2.0000000000e+00 5.0837439732e-01 -8.1677265852e-01 -2.7283309266e-01 0.0000000000e+00
1886 1.0000000000e+00 1.0000000000e+00 2.0000000000e+00 6.9623447188e-01 -4.9734013606e-01 -5.1760056919e-01 0.0000000000e+00
1887 1.0000000000e+00 1.0000000000e+00 2.0000000000e+00 3.9162679896e-01 6.5224851930e-01 6.4899947566e-01 -0.0000000000e+00
1888 1.0000000000e+00 1.0000000000e+00 2.0000000000e+00 3.1531092949e-01 -5.1422381285e-02 -9.4759419397e-01 0.0000000000e+00
1889 1.0000000000e+00 1.0000000000e+00 2.0000000000e+00 2.6367378918e-01 -9.3709441149e-01 -2.2875794381e-01 0.0000000000e+00
1890 1.0000000000e+00 1.0000000000e+00 2.0000000000e+00 3.1068511341e-01 -3.4577188633e-01 -8.8539062731e-01 0.0000000000e+00
1891 1.0000000000e+00 1.0000000000e+00 2.0000000000e+00 5.1866910806e-01 -7.7989997576e-01 -3.5034038328e-01 0.0000000000e+00
1892 1.0000000000e+00 1.0000000000e+00 2.0000000000e+00 4.6770691028e-01 7.0474268755e-01 5.3346789071e-01 -0.0000000000e+00
1893 1.0000000000e+00 1.0000000000e+00 2.0000000000e+00 7.4293184559e-01 -4.2193108723e-02 -6.6803593794e-01 0.0000000000e+00
1894 1.0000000000e+00 1.0000000000e+00 2.0000000000e+00 7.5649240703e-01 1.7765821379e-01 -6.2940988011e-01 0.0000000000e+00
1895 1.0000000000e+00 1.0000000000e+00 2.0000000000e+00 8.1836031162e-01 -4.4389958638e-01 3.6501994134e-01 0.0000000000e+00
1896 1.0000000000e+00 1.0000000000e+00 2.0000000000e+00 9.5422773717e-01 1.6822272009e-01 -2.4728635640e-01 0.0000000000e+00
1897 1.0000000000e+00 1.0000000000e+00 2.0000000000e+00 6.3117350967e-01 -7.4775425112e-01 2.0611545459e-01 0.0000000000e+00
1898 1.0000000000e+00 1.0000000000e+00 2.0000000000e+00 6.6546772414e-01 -5.7844124434e-01 4.7176099349e-01 0.0000000000e+00
1899 1.0000000000e+00 1.0000000000e+00 2.0000000000e+00 9.6329831172e-01 2.6645857897e-01 3.2499051214e-02 -0.0000000000e+00
1900 1.0000000000e+00 1.0000000000e+00 2.0000000000e+00 9.2156698794e-01 -3.1183457488e-01 -2.3124334510e-01 0.0000000000e+00
1901 1.0000000000e+00 1.0000000000e+00 2.0000000000e+00 1.8455455113e-01 9.3522341247e-01 -3.0215358085e-01 0.0000000000e+00
1902 1.0000000000e+00 1.0000000000e+00 2.0000000000e+00 2.3618131088e-01 3.7760917367e-01 8.9533775770e-01 -0.0000000000e+00
1903 1.0000000000e+00 1.0000000000e+00 2.0000000000e+00 4.5116186681e-01 8.9207141820e-01 2.5720707136e-02 -0.0000000000e+00
1904 1.0000000000e+00 1.0000000000e+00 2.0000000000e+00 8.9932698969e-01 1.1113880754e-01 4.2291740456e-01 -0.0000000000e+00
1905 1.0000000000e+00 1.0000000000e+00 2.0000000000e+00 6.3637723552e-01 -1.4742594272e-01 -7.5715890375e-01 0.0000000000e+00
1906 1.0000000000e+00 1.0000000000e+00 2.0000000000e+00 7.9854568474e-01 -5.9294199058e-01 -1.0365609093e-01 0.0000000000e+00
1907 1.0000000000e+00 1.0000000000e+00 2.0000000000e+00 2.4089088256e-01 -7.9677284042e-01 -5.5418825634e-01 0.0000000000e+00
1908 1.0000000000e+00 1.0000000000e+00 2.0000000000e+00 4.5019963088e-01 -6.5014719556e-01 -6.1206937226e-01 0.0000000000e+00
1909 1.0000000000e+00 1.0000000000e+00 2.0000000000e+00 9.8171683718e-01 6.0237420023e-02 1.8056440630e-01 -0.0000000000e+00
1910 1.0000000000e+00 1.0000000000e+00 2.0000000000e+00 8.2806582686e-01 2.1705345831e-01 -5.1690887265e-01 0.0000000000e+00
1911 1.0000000000e+00 1.0000000000e+00 2.0000000000e+00 9.2136480318e-01 1.1436652429e-01 3.7149319992e-01 -0.0000000000e+00
1912 1.0000000000e+00 1.0000000000e+00 2.0000000000e+00 7.6065492210e-01 -5.6245290829e-01 -3.2411543537e-01 0.0000000000e+00
1913 1.0000000000e+00 1.0000000000e+00 2.0000000000e+00 9.7124052504e-01 2.0565045122e-02 -2.3721071107e-01 0.0000000000e+00
1914 1.0000000000e+00 1.0000000000e+00 2.0000000000e+00 4.0036484979e-01 -5.9589700199e-01 -6.9614276558e-01 0.0000000000e+00
1915 1.0000000000e+00 1.0000000000e+00 2.0000000000e+00 7.5732148007e-01 6.0178811621e-01 2.5360449326e-01 -0.0000000000e+00
1916 1.0000000000e+00 1.0000000000e+00 2.0000000000e+00 1.5763951325e-01 -4.7497830338e-01 8.6576289778e-01 0.0000000000e+00
1917 1.0000000000e+00 1.0000000000e+00 2.0000000000e+00 3.5983804505e-01 9.3083007455e-01 -6.3811861377e-02 0.0000000000e+00
1918 1.0000000000e+00 1.0000000000e+00 2.0000000000e+00 6.2192245077e-01 7.1816629514e-01 -3.1216924537e-01 0.0000000000e+00
1919 1.0000000000e+00 1.0000000000e+00 2.0000000000e+00 6.8184231370e-01 5.4409163905e-01 -4.8893286611e-01 0.0000000000e+00
1920 1.0000000000e+00 1.0000000000e+00 2.0000000000e+00 9.1483754851e-01 3.9993304258e-01 -5.5909044810e-02 0.0000000000e+00
1921 1.0000000000e+00 1.0000000000e+00 2.0000000000e+00 8.7269274829e-01 1.0002985695e-01 -4.7791358507e-01 0.0000000000e+00
1922 1.0000000000e+00 1.0000000000e+00 2.0000000000e+00 9.1302597723e-01 7.2703868983e-02 4.0136979499e-01 -0.0000000000e+00
1923 1.0000000000e+00 1.0000000000e+00 2.0000000000e+00 7.5089302336e-01 1.7919511656e-01 -6.3564831288e-01 0.0000000000e+00
1924 1.0000000000e+00 1.0000000000e+00 2.0000000000e+00 7.7220118117e-01 5.6204367252e-01 2.9633131118e-01 -0.0000000000e+00
1925 1.0000000000e+00 1.0000000000e+00 2.0000000000e+00 1.6748374291e-01 9.8537546660e-01 -3.1374921127e-02 0.0000000000e+00
1926 1.0000000000e+00 1.0000000000e+00 2.0000000000e+00 6.6661571297e-01 -4.2255434700e-01 6.1406132841e-01 0.0000000000e+00
1927 1.0000000000e+00 1.0000000000e+00 2.0000000000e+00 7.7511176525e-01 -5.6865825327e-01 2.7537164407e-01 0.0000000000e+00
1928 1.0000000000e+00 1.0000000000e+00 2.0000000000e+00 8.1019119243e-01 1.1076201178e-01 -5.7560577521e-01 0.0000000000e+00
1929 1.0000000000e+00 1.0000000000e+00 2.0000000000e+00 8.8898007373e-01 -2.2569950020e-01 3.9846475893e-01 0.0000000000e+00
1930 1.0000000000e+00 1.0000000000e+00 2.0000000000e+00 7.5016857328e-01 -6.2301449487e-02 6.5830512762e-01 0.0000000000e+00
1931 1.0000000000e+00 1.0000000000e+00 2.0000000000e+00 9.2241135630e-01 -2.9343578243e-01 -2.5110302936e-01 0.0000000000e+00
1932 1.0000000000e+00 1.0000000000e+00 2.0000000000e+00 7.2500970879e-01 6.7962769714e-01 1.1165623780e-01 -0.0000000000e+00
1933 1.0000000000e+00 1.0000000000e+00 2.0000000000e+00 6.1817303683e-01 3.9411605999e-01 6.8009898382e-01 -0.0000000000e+00
1934 1.0000000000e+00 1.0000000000e+00 2.0000000000e+00 7.5888998515e-01 -3.3464139474e-01 -5.5866011793e-01 0.0000000000e+00
1935 1.0000000000e+00 1.0000000000e+00 2.0000000000e+00 3.3748966586e-01 7.7846054178e-01 -5.2924466018e-01 0.0000000000e+00
1936 1.0000000000e+00 1.0000000000e+00 2.0000000000e+00 5.2179776934e-01 4.3805680906e-01 7.3200636606e-01 -0.0000000000e+00
1937 1.0000000000e+00 1.0000000000e+00 2.0000000000e+00 8.3790182305e-01 -5.4437271794e-01 -3.9735109010e-02 0.0000000000e+00
1938 1.0000000000e+00 1.0000000000e+00 2.0000000000e+00 6.9460773084e-01 -3.4786091152e-01 6.2969269211e-01 0.0000000000e+00
1939 1.0000000000e+00 1.0000000000e+00 2.0000000000e+00 9.9856429334e-01 4.1119308395e-02 -3.4330082212e-02 0.0000000000e+00
1940 1.0000000000e+00 1.0000000000e+00 2.0000000000e+00 8.7746951448e-01 -4.7291909947e-01 -7.9967346588e-02 0.0000000000e+00
1941 1.0000000000e+00 1.0000000000e+00 2.0000000000e+00 6.9577378066e-02 -9.3823899590e-01 3.3891971769e-01 0.0000000000e+00
1942 1.0000000000e+00 1.0000000000e+00 2.0000000000e+00 2.1736002394e-01 3.5496868392e-01 9.0925895840e-01 -0.0000000000e+00
1943 1.0000000000e+00 1.0000000000e+00 2.0000000000e+00 1.2864489740e-01 -2.1871430978e-01 9.6727169972e-01 0.0000000000e+00
1944 1.0000000000e+00 1.0000000000e+00 2.0000000000e+00 9.6003135118e-01 -2.7666257175e-01 4.2398421567e-02 0.0000000000e+00
1945 1.0000000000e+00 1.0000000000e+00 2.0000000000e+00 8.9082198159e-01 4.1556020195e-01 1.8370061423e-01 -0.0000000000e+00
1946 1.0000000000e+00 1.0000000000e+00 2.0000000000e+00 6.0552599381e-01 -6.6833073059e-01 -4.3205590538e-01 0.0000000000e+00
1947 1.0000000000e+00 1.0000000000e+00 2.0000000000e+00 8.1969992857e-01 4.7370010940e-01 3.2202520625e-01 -0.0000000000e+00
1948 1.0000000000e+00 1.0000000000e+00 2.0000000000e+00 8.3558442400e-01 4.8063596893e-01 2.6605964695e-01 -0.0000000000e+00
1949 1.0000000000e+00 1.0000000000e+00 2.0000000000e+00 6.9706882221e-01 6.8928919975e-01 -1.9742202563e-01 0.0000000000e+00
1950 1.0000000000e+00 1.0000000000e+00 2.0000000000e+00 6.4390513035e-01 5.1549835252e-01 5.6537388660e-01 -0.0000000000e+00
1951 1.0000000000e+00 1.0000000000e+00 2.0000000000e+00 5.2852085748e-01 -8.4644526070e-01 -6.4777494916e-02 0.0000000000e+00
1952 1.0000000000e+00 1.0000000000e+00 2.0000000000e+00 3.0674756352e-01 -5.4458745337e-01 -7.8059620670e-01 0.0000000000e+00
1953 1.0000000000e+00 1.0000000000e+00 2.0000000000e+00 6.6809225322e-01 4.6942257067e-01 -5.7731723630e-01 0.0000000000e+00
1954 1.0000000000e+00 1.0000000000e+00 2.0000000000e+00 9.2216596570e-01 -2.7067543466e-01 -2.7630552070e-01 0.0000000000e+00
1955 1.0000000000e+00 1.0000000000e+00 2.0000000000e+00 4.6949675743e-01 -3.3942778931e-01 8.1508378134e-01 0.0000000000e+00
1956 1.0000000000e+00 1.0000000000e+00 2.0000000000e+00 8.8796306075e-01 2.5690705199e-01 -3.8147132183e-01 0.0000000000e+00
1957 1.0000000000e+00 1.0000000000e+00 2.0000000000e+00 9.4067254211e-01 -3.0705790794e-01 -1.4439740197e-01 0.0000000000e+00
1958 1.0000000000e+00 1.0000000000e+00 2.0000000000e+00 3.4198803752e-01 9.1603233649e-01 2.0959232024e-01 -0.0000000000e+00
1959 1.0000000000e+00 1.0000000000e+00 2.0000000000e+00 7.4230021034e-01 -6.5797685578e-01 1.2671564620e-01 0.0000000000e+00
1960 1.0000000000e+00 1.0000000000e+00 2.0000000000e+00 6.0279908571e-01 1.5582668068e-01 -7.8252879043e-01 0.0000000000e+00
1961 1.0000000000e+00 1.0000000000e+00 2.0000000000e+00 9.9525806415e-01 8.0316711482e-02 -5.4869040479e-02 0.0000000000e+00
1962 1.0000000000e+00 1.0000000000e+00 2.0000000000e+00 9.9564261919e-01 9.0223250481e-02 2.3569894515e-02 -0.0000000000e+00
1963 1.0000000000e+00 1.0000000000e+00 2.0000000000e+00 5.9908274093e-01 2.9146311423e-01 -7.4575406305e-01 0.0000000000e+00
1964 1.0000000000e+00 1.0000000000e+00 2.0000000000e+00 7.1801624915e-01 4.3187222447e-01 -5.4583793170e-01 0.0000000000e+00
1965 1.0000000000e+00 1.0000000000e+00 2.0000000000e+00 5.3958837707e-01 7.9554057937e-01 -2.7560763760e-01 0.0000000000e+00
1966 1.0000000000e+00 1.0000000000e+00 2.0000000000e+00 9.2655980764e-01 2.8622001829e-01 -2.4405946813e-01 0.0000000000e+00
1967 1.0000000000e+00 1.0000000000e+00 2.0000000000e+00 2.0344226066e-01 4.6755979358e-01 -8.6023199546e-01 0.0000000000e+00
1968 1.0000000000e+00 1.0000000000e+00 2.0000000000e+00 6.3853200453e-01 3.7190891203e-01 -6.7376601305e-01 0.0000000000e+00
1969 1.0000000000e+00 1.0000000000e+00 2.0000000000e+00 9.7263341335e-01 2.3129869113e-01 2.2026318753e-02 -0.0000000000e+00
1970 1.0000000000e+00 1.0000000000e+00 2.0000000000e+00 8.8618291419e-01 1.4014487512e-01 -4.4163249040e-01 0.0000000000e+00
1971 1.0000000000e+00 1.0000000000e+00 2.0000000000e+00 6.1427272176e-01 -5.3948750875e-02 -7.8724745511e-01 0.0000000000e+00
1972 1.0000000000e+00 1.0000000000e+00 2.0000000000e+00 6.1489890785e-01 -3.9612754033e-01 -6.8189611006e-01 0.0000000000e+00
1973 1.0000000000e+00 1.0000000000e+00 2.0000000000e+00 4.8566840441e-01 1.8545442146e-01 -8.5424402750e-01 0.0000000000e+00
1974 1.0000000000e+00 1.0000000000e+00 2.0000000000e+00 4.1754377587e-01 -8.9977659025e-01 -1.2672522584e-01 0.0000000000e+00
1975 1.0000000000e+00 1.0000000000e+00 2.0000000000e+00 8.2500702226e-01 -1.3519731414e-01 5.4871221917e-01 0.0000000000e+00
1976 1.0000000000e+00 1.0000000000e+00 2.0000000000e+00 9.7826662267e-01 -1.5979472249e-01 1.3213652649e-01 0.0000000000e+00
1977 1.0000000000e+00 1.0000000000e+00 2.0000000000e+00 8.3624648976e-01 -3.5566113399e-01 4.1736910060e-01 0.0000000000e+00
1978 1.0000000000e+00 1.0000000000e+00 2.0000000000e+00 8.5904918156e-01 3.7549746131e-01 3.4790251539e-01 -0.0000000000e+00
1979 1.0000000000e+00 1.0000000000e+00 2.0000000000e+00 7.0803800717e-01 -6.6347462876e-01 2.4183382185e-01 0.0000000000e+00
1980 1.0000000000e+00 1.0000000000e+00 2.0000000000e+00 4.6532313168e-01 -7.7028659000e-01 4.3604237453e-01 0.0000000000e+00
1981 1.0000000000e+00 1.0000000000e+00 2.0000000000e+00 4.0560456393e-01 8.4540672099e-01 3.4752325653e-01 -0.0000000000e+00
1982 1.0000000000e+00 1.0000000000e+00 2.0000000000e+00 8.7024667234e-01 -2.8856518134e-01 3.9925037934e-01 0.0000000000e+00
1983 1.0000000000e+00 1.0000000000e+00 2.0000000000e+00 8.5280582890e-01 5.0854202733e-01 1.1877383818e-01 -0.0000000000e+00
1984 1.0000000000e+00 1.0000000000e+00 2.0000000000e+00 9.2710774012e-01 3.5191784854e-01 1.2893822584e-01 -0.0000000000e+00
1985 1.0000000000e+00 1.0000000000e+00 2.0000000000e+00 9.4672905795e-01 1.0568258246e-01 3.0419612523e-01 -0.0000000000e+00
1986 1.0000000000e+00 1.0000000000e+00 2.0000000000e+00 8.9737786766e-01 -3.5146021468e-01 2.6681206894e-01 0.0000000000e+00
1987 1.0000000000e+00 1.0000000000e+00 2.0000000000e+00 7.5150776158e-01 3.6761306229e-01 -5.4781084393e-01 0.0000000000e+00
1988 1.0000000000e+00 1.0000000000e+00 2.0000000000e+00 8.9326767091e-01 -3.5076443303e-01 -2.8113552004e-01 0.0000000000e+00
1989 1.0000000000e+00 1.0000000000e+00 2.0000000000e+00 6.7274416360e-01 4.5754987313e-01 5.8143220064e-01 -0.0000000000e+00
1990 1.0000000000e+00 1.0000000000e+00 2.0000000000e+00 7.5508591925e-01 6.4367489376e-01 -1.2461093728e-01 0.0000000000e+00
1991 1.0000000000e+00 1.0000000000e+00 2.0000000000e+00 4.3202057216e-01 9.0073853974e-01 4.5036743446e-02 -0.0000000000e+00
1992 1.0000000000e+00 1.0000000000e+00 2.0000000000e+00 9.7523342834e-01 -4.7010847868e-02 -2.1612436333e-01 0.0000000000e+00
1993 1.0000000000e+00 1.0000000000e+00 2.0000000000e+00 9.7791792253e-01 1.4888129973e-01 -1.4666593126e-01 0.0000000000e+00
1994 1.0000000000e+00 1.0000000000e+00 2.0000000000e+00 3.3708119976e-01 9.4128388704e-01 1.8997599198e-02 -0.0000000000e+00
1995 1.0000000000e+00 1.0000000000e+00 2.0000000000e+00 7.6437935285e-01 -4.9852392502e-01 -4.0889864408e-01 0.0000000000e+00
1996 1.0000000000e+00 1.0000000000e+00 2.0000000000e+00 9.4483716695e-01 2.8100070433e-01 1.6828942959e-01 -0.0000000000e+00
1997 1.0000000000e+00 1.0000000000e+00 2.0000000000e+00 8.9626147882e-01 -3.5981067584e-01 -2.5932920997e-01 0.0000000000e+00
1998 1.0000000000e+00 1.0000000000e+00 2.0000000000e+00 3.7674634369e-01 -2.5552111933e-01 -8.9037697078e-01 0.0000000000e+00
1999 1.0000000000e+00 1.0000000000e+00 2.0000000000e+00 9.8114646701e-01 1.1557392135e-01 1.5490086820e-01 -0.0000000000e+00
2000 1.0000000000e+00 1.0000000000e+00 2.0000000000e+00 4.6922543047e-01 -3.4696345214e-01 8.1206148676e-01 0.0000000000e+00
2001 1.0000000000e+00 1.0000000000e+00 2.0000000000e+00 8.4923375862e-01 5.2631694112e-01 -4.2337934655e-02 0.0000000000e+00
2002 1.0000000000e+00 1.0000000000e+00 2.0000000000e+00 6.5287921730e-01 -3.7067005197e-01 6.6056978450e-01 0.0000000000e+00
2003 1.0000000000e+00 1.0000000000e+00 2.0000000000e+00 6.4743203147e-01 5.6792932227e-01 5.0822047334e-01 -0.0000000000e+00

Velocities

1 4.2371014561e-01 -4.3405212072e-01 3.5546421050e-02 4.2407894456e-01 5.9573497038e-01 -9.9541578062e-02
2 -2.4657616321e+00 2.8504080415e-01 2.8691318193e+00 -3.6133109724e-01 -2.7159943451e-01 2.9987675579e-02
3 2.2211832573e+00 4.7363170938e-01 1.3220714397e+00 -2.1505712294e-01 -5.9634729469e-02 -1.8731459092e-01
4 -1.0646210124e-01 7.4223153347e-01 -6.1775599662e-01 6.6549813557e-02 4.3212719619e-02 1.6038388260e-01
5 -1.8292036536e+00 -1.1328677274e+00 7.7861105805e-01 -2.9600808498e-03 -6.7248408918e-03 1.8705747885e-01
6 -1.1960281047e-01 1.5177969892e-01 1.6745832255e-01 8.9293330316e-01 -1.4792302590e-02 5.2182460978e-01
7 1.3500273873e+00 4.2567456099e-01 -3.0989659386e-01 -2.4541112843e-01 -1.5591705940e-01 4.8565397518e-01
8 -1.6809694596e+00 -1.2634629259e+00 -9.0930662957e-01 -8.9031295007e-02 6.4083481422e-01 2.7951288078e-01
9 1.7933011072e+00 1.0350895063e+00 -8.7035876302e-01 -7.5911145112e-04 2.0541056360e-02 1.3951183037e-01
10 -1.5442175632e+00 2.0499406466e-01 -2.4190846935e-01 -4.1309566616e-01 1.8347864376e-01 6.4293509349e-02
11 -8.1684437868e-01 2.4481872793e+00 6.9401842833e-02 3.2778690918e-01 9.9537081944e-01 -5.2955093810e-01
12 -9.4709615938e-01 -1.6765500479e-01 2.8449928020e-01 -2.2588827325e-02 8.0066989101e-01 4.0133267841e-01
13 -4.6999339364e-01 8.0397101660e-01 -7.2029373171e-01 3.9717434337e-01 -6.9880933779e-01 -7.5260306609e-01
14 9.5720344772e-01 1.9008027741e+00 -3.6232471690e-01 5.7501528069e-02 -3.7808334224e-01 -4.2441912378e-01
15 7.4633474657e-01 1.4206313338e+00 -9.3486566928e-01 5.0833608038e-02 1.5965835785e-01 5.0203359543e-03
16 9.1420016640e-01 -8.2713436682e-01 2.1641464154e+00 7.0228255837e-02 1.7153987448e-01 5.8749335349e-02
17 -4.0550312248e-01 -1.1510615948e+00 5.3143039672e-01 -9.6526867831e-02 1.2030374034e+00 5.5313205717e-01
18 4.7659864261e-01 1.4172686070e+00 -3.1604986942e-01 -4.0969002679e-01 8.1870768043e-01 -8.4218315744e-01
19 6.3543548362e-01 6.9704169738e-01 -2.4840281996e-01 -4.6067917032e-04 -1.0171242880e+00 6.0985576590e-01
20 1.2553232764e+00 -1.2987143380e+00 4.9861244436e-01 3.4779945481e-01 -2.2174512491e-02 6.6288052383e-01
21 -3.6945866269e-01 1.0263148106e+00 -2.3000215676e-01 -8.2029596994e-02 1.6185598647e-02 1.7875680578e-01
22 -9.0084109449e-01 5.3498641892e-01 -1.0262712289e+00 -2.3702978332e-02 -1.2365641246e-01 -2.6316072546e-01
23 6.7767287325e-01 -9.1200777125e-02 2.9935749391e-01 -1.9007289155e-01 7.8316406222e-02 -1.4034640964e-01
24 1.3861910677e+00 -7.8330195555e-01 9.1443976673e-01 -1.7603455177e-01 -1.5737275181e-01 -5.9715267524e-01
25 8.6248713682e-01 -2.3176827972e+00 4.0415779828e-01 1.5474711652e-01 -2.8128902709e-01 1.3316132313e-01
26 -9.9637046656e-01 4.9167888140e-01 2.4253018192e+00 2.0471019426e-01 2.0363110028e-01 4.3237384460e-01
27 -4.4434881126e-01 -9.8857931730e-01 2.5129613303e-01 5.4692645920e-02 -8.2163041380e-01 -6.3205079978e-02
28 3.6333283013e-01 -6.9498172309e-01 -2.5673780496e+00 -3.8620710108e-01 -4.6449510421e-01 8.2432400051e-02
29 -1.2733536171e+00 6.4241475297e-01 9.6831034068e-01 7.0251611145e-01 3.5171739692e-01 4.7956866068e-02
30 -1.1139911036e+00 -4.1554470368e-02 1.0494508056e+00 -1.8370342702e-03 -1.1140173041e-01 3.2887116157e-01
31 5.6972254604e-01 -8.0180905653e-01 -8.5192887067e-01 3.5226432936e-01 -1.1717182069e-02 -2.2160797087e-01
32 8.9867904095e-01 -6.3014547865e-01 4.2880217113e-01 -7.0729230497e-02 9.6928956519e-03 -2.6366096367e-02
33 -6.2136200716e-01 6.7538031492e-02 1.1959811305e+00 -1.0200786438e+00 5.2278698957e-01 -4.9448504992e-01
34 1.0409782956e+00 -1.8557728899e+00 1.0294645785e+00 1.2064608568e-01 7.1079341028e-01 -3.8041236260e-02
35 -1.3316351011e+00 4.5965814235e-01 -1.4902636151e+00 -1.9702958994e-01 -9.4226628246e-01 6.5441953372e-02
36 -1.4695274785e-01 3.6034602190e-01 4.8142309617e-01 4.1050895643e-01 -2.2850582264e-01 8.1542785460e-01
37 -7.8625744839e-01 -5.5037594490e-02 -1.3447062143e+00 -1.2902836737e-01 -6.5550655543e-01 9.4316239171e-01
38 4.2582115011e-01 -8.2708873598e-01 5.1890101197e-01 8.2704543840e-01 2.6374435802e-01 5.9757808783e-01
39 4.1215353432e-01 -1.3265949515e+00 -1.1079569565e-01 8.0859897171e-02 -1.6612352907e-01 1.9279763414e-02
40 -1.2683406126e+00 1.4083762565e+00 1.2415257038e-01 5.3284713889e-02 -9.6017302415e-01 -3.9646377447e-01
41 -2.0328304481e-01 1.5317575386e+00 1.4393746230e+00 2.2664261731e-01 3.4392049029e-01 1.2315117165e+00
42 8.7977017352e-01 2.4293475450e+00 1.1357507349e+00 2.8992829049e-01 4.2063754307e-01 9.1840775094e-01
43 4.8788053302e-01 3.1792011675e-01 -1.2610380002e+00 -2.9630388414e-01 -1.8809030799e-01 -2.0115555974e-01
44 1.5293042595e+00 -9.2926559637e-01 1.0495828437e+00 -1.1492401602e-01 -3.5275907984e-01 -3.1488998018e-01
45 8.3432588460e-01 -2.9749660785e-02 3.9430773574e-01 -1.3683792836e-02 1.6253677829e-01 1.4301434758e-01
46 6.1573785035e-01 -1.3551504385e+00 -4.8456540881e-01 -1.7097161336e-01 -1.4844411689e-01 3.1450264172e-01
47 1.0431893784e-01 -7.0111974081e-02 -8.0652783200e-01 -8.8505714941e-01 -3.2993537816e-01 5.1783093411e-01
48 1.2961906056e+00 -6.3117838020e-01 -1.8086433212e+00 3.5553089519e-01 9.2463447494e-01 -5.4395712463e-01
49 7.1819211521e-01 -1.5119081184e+00 4.9123390084e-01 -1.0415979705e-01 1.1754646510e+00 2.0345538682e-01
50 8.4765898418e-01 1.8587233747e+00 -2.5904179802e-01 -2.8648420355e-01 -3.2664102149e-01 3.5203041717e-01
51 -4.0911304898e-01 -3.0621693615e+00 -5.8250258608e-01 -2.2447918098e-01 -1.8212152029e-01 -2.0691672327e-01
52 -2.2330014337e+00 6.3724694439e-01 -1.5624030613e+00 5.0554400104e-02 -4.6515697710e-01 3.0178496956e-01
53 1.1396900455e+00 1.1352826267e-01 1.6721274151e+00 7.4771957215e-01 -4.2685562929e-01 -8.4839556986e-01
54 -5.8665168597e-01 9.3633830215e-01 1.0450596214e+00 3.5585245992e-01 -5.9902150200e-01 1.4383733732e-01
55 1.1521682247e+00 -3.1687490987e-01 -1.3955871920e+00 -3.3379697831e-01 6.9157085123e-01 -1.9536467281e-01
56 -7.3032394542e-01 8.6018239087e-04 -8.5530915509e-01 2.7968114648e-01 1.5697474802e-01 9.4366234438e-02
57 -1.4759899913e+00 9.7887074164e-01 2.3733011256e-01 -1.8425355261e-01 3.2187019109e-02 -2.7977818175e-01
58 -3.0171860315e-01 8.8520808659e-01 -8.8187898588e-01 -3.1726628506e-01 -7.4704712907e-01 7.2878956579e-01
59 -1.2687210958e+00 3.3924599181e-01 1.3205628123e+00 -2.8630660223e-01 2.8565716947e-01 -4.8429229725e-01
60 -2.0031858353e-01 1.0723780539e+00 1.3481334029e+00 -2.0378082201e-01 -1.7021713389e-01 9.0650026718e-01
61 2.1370006164e+00 1.0997790590e+00 1.0634682689e+00 -6.2832549719e-01 6.6359958588e-01 1.9455307357e-01
62 3.1344787316e-02 9.9017271220e-01 -5.0040024074e-01 -1.4915937008e-02 4.3360737581e-01 -9.7036371563e-01
63 7.3959599324e-01 -8.5536021032e-02 -1.6830790864e-01 -4.8180837046e-01 -3.2559895638e-03 -1.0773780351e+00
64 -7.2345150936e-01 -1.5503319166e+00 -1.1129638849e-01 -4.1555213813e-01 -7.2449139557e-02 -7.0706143988e-01
65 -1.3623195664e+00 -1.5079690786e+00 -8.0328861740e-01 5.1906757986e-01 -6.0037742244e-01 -3.8924390979e-01
66 1.2786619993e+00 7.6216566851e-01 -5.4997794224e-01 2.5193009695e-01 -4.9725111047e-02 5.8526334455e-01
67 1.1533620282e+00 -3.9954843011e-01 -1.0202809903e-01 1.0286023433e-01 -2.1037006589e-01 4.2339498705e-01
68 1.6092663812e+00 7.5700855997e-01 9.7565321182e-01 1.5845227764e-01 2.1740435055e-01 1.3986519935e-01
69 -8.1040845055e-01 -2.0148148826e+00 1.5234061237e+00 -1.8175286452e-01 8.0808117269e-01 -2.7704696230e-01
70 1.2312618446e+00 2.0517724595e+00 9.3145625424e-01 2.2823110896e-01 4.3419564147e-01 -4.5247758654e-01
71 1.1103374654e+00 2.6936609034e-02 7.7447779846e-01 2.2795420780e-01 6.9866449635e-02 -2.2359377624e-01
72 -2.4587925445e-01 -2.1870368281e-01 -1.9293581950e+00 -7.5860024593e-02 -4.9343785472e-02 6.0178926761e-03
73 9.7482329226e-01 3.3309566239e-01 9.8682821829e-01 1.1842682742e-01 -7.3754980995e-02 2.3763430157e-01
74 -7.6329899797e-01 -1.4678713674e-01 1.4115410283e+00 -8.7121463563e-01 -1.3970342824e-01 -1.2348714377e+00
75 -1.7592457753e+00 1.3775191453e-01 1.0126763910e+00 -6.2548176079e-01 5.2180546674e-01 5.3724483541e-01
76 -9.3308326667e-01 -3.8510174194e-01 -7.8246089208e-01 -9.9463776736e-01 -4.5303203134e-02 -7.7045125193e-01
77 1.2013894016e+00 2.4198472309e-01 1.4697633297e+00 -1.6695299954e-01 2.7046194557e-01 7.4243379169e-02
78 1.2325694382e+00 3.1772320128e-01 8.4261155498e-01 -6.7195142079e-02 3.1358503058e-02 -3.4133825751e-02
79 3.0030745168e-01 -1.7749669067e+00 8.9403236518e-01 1.0349192365e+00 -2.3864382815e-02 3.6222551512e-01
80 2.9393143202e-01 -1.3215442328e-01 2.3121915750e+00 1.9902611526e-01 -1.6106413967e-01 1.4384590280e-01
81 -2.4434470074e+00 -2.5536775308e-01 -7.3660166881e-01 3.7504365554e-01 8.5606469348e-01 8.5000133262e-01
82 -1.4620079087e+00 -3.2302810118e-01 -1.9477158984e-01 -1.5210926647e-01 -3.8295023127e-01 7.6152910814e-02
83 -1.6096454829e+00 1.4945873694e+00 -1.3426691762e+00 -4.0945237418e-01 1.2167576470e-01 6.0632771519e-02
84 -1.0705898196e+00 -3.8363219829e-01 -3.9551496742e-01 1.4245506692e-01 5.9220803995e-01 -2.7103696252e-01
85 1.2836501341e+00 -1.1196564560e+00 -3.2081433464e-02 -1.6418280385e-01 1.0069891865e+00 1.9978975069e-01
86 2.2985849339e-01 5.9714071720e-01 8.5184885901e-01 3.7371115237e-01 -7.2576411096e-03 -2.1718469457e-02
87 5.7735328348e-01 5.4439509114e-01 -4.9786867829e-01 -2.1494906624e-01 -5.4953356829e-01 3.4506373625e-01
88 -8.9623350496e-02 -2.9791970759e-01 1.2562017091e-01 -4.9862335824e-03 -2.5849777164e-01 6.0219544129e-02
89 -4.5665820673e-01 6.9708085027e-01 -1.3484038759e+00 -1.4646286631e-01 -7.4418421306e-02 4.6338337969e-01
90 6.9281996871e-01 -3.7203091739e-01 1.7377467521e+00 8.2921723706e-02 -3.0025857015e-01 -5.2097457535e-01
91 -1.2791819412e+00 -9.3058782208e-01 9.7903976293e-01 -4.5871576670e-01 -3.7934646104e-01 3.8293937457e-01
92 7.5343335127e-01 -1.0009070054e+00 -3.3958151528e-01 -1.0816488085e+00 -3.8493597306e-01 4.4185933771e-01
93 1.8294984780e+00 -1.3306763141e-04 -7.2040803856e-02 -2.2888174448e-01 -1.3912900637e-01 1.9891156583e-01
94 6.1278600755e-01 1.8848164122e+00 6.8832771616e-01 -1.5200174964e-02 2.9834133514e-01 2.8895550740e-01
95 1.9511646156e-01 -3.7480500842e-01 -8.2632400528e-01 -1.5995232413e-03 -1.9385073610e-01 -9.2761395888e-02
96 1.5167020699e+00 -4.5903692648e-01 5.1544357545e-02 5.5999110459e-01 -8.4356477146e-02 -2.3615755748e-01
97 1.7621526002e-01 4.1086807258e-01 8.7866100047e-01 3.9603308348e-01 -2.9968787504e-02 1.2523697761e-01
98 1.2774676698e+00 -1.5325246591e-01 4.5061730069e-01 -3.9315871469e-01 3.8964647648e-01 -4.5170375688e-01
99 -1.9378260302e+00 -1.5221309379e+00 1.5169000565e+00 1.0513443133e+00 -1.4940198673e-01 -8.6400869157e-01
100 8.1934410078e-02 1.0918417777e+00 1.2336303134e+00 -6.1148494649e-01 -3.5126386488e-01 -1.2128183652e+00
101 1.0356087490e-01 2.1447235682e-01 7.8218515543e-01 -3.7889888483e-01 -9.5217376307e-01 -2.8639317062e-01
102 -3.9169336408e-01 1.7178642780e+00 1.0514628579e+00 -2.8312207376e-01 5.3034226005e-01 -1.7596203441e-01
103 7.9392900791e-01 1.5509599904e+00 6.8812613320e-01 -8.4392684736e-01 -5.8677756716e-01 1.1310826881e-01
104 -1.5161061854e+00 -2.7453799619e-01 -6.6238994749e-01 -5.5970986205e-01 -6.5394590848e-02 6.8768382511e-01
105 1.1443433738e+00 -4.9233922655e-01 -1.2046688622e+00 -4.1930540095e-01 2.9495772797e-01 1.1428295715e-01
106 -8.5975887678e-01 -6.6586446016e-01 -1.6375792360e-02 3.0073120524e-01 -4.8893820866e-02 -1.1728904647e+00
107 -1.5555496114e-01 -8.6496525547e-01 1.7605355787e+00 -2.0049932124e-01 -3.6113339213e-01 -3.6766990242e-02
108 -8.8158417209e-01 1.6158605789e+00 -1.6321105657e+00 -5.0225904175e-01 -2.3824848513e-01 5.9920499312e-01
109 -9.2227195065e-01 1.6417378762e+00 1.8329381945e+00 -3.9268713715e-01 4.1115543025e-01 -9.3936816485e-03
110 1.7955011712e+00 -2.7478549396e+00 -2.7680840613e-01 -1.2651457729e-02 7.2003294043e-02 -4.2320183546e-02
111 6.6915983358e-01 6.1941091932e-01 -2.2084727993e-01 -5.8724225561e-01 4.5612060637e-01 -1.2154197234e-01
112 -9.2576268346e-01 2.0058570963e-01 -6.0133254696e-01 1.5431189868e-01 2.8442286375e-01 -2.8670986552e-02
113 1.2806188136e+00 1.3824254996e+00 2.9752212539e-03 -4.8252736369e-01 2.1760142379e-01 3.0798906948e-01
114 7.7274249327e-02 -3.1145721520e-02 -2.6730297676e-01 -1.7850454128e-01 1.4809490945e-01 -3.7910917342e-01
115 7.5175339619e-01 -1.2213021938e+00 1.3181532191e+00 6.2336285417e-01 -1.9168459765e-01 1.7025465269e-02
116 -5.6863448479e-01 -1.3976496612e+00 6.5545914106e-01 -1.0930131882e-01 -1.3714452477e-01 -1.1555650084e-01
117 -9.5784864799e-02 -8.4619811065e-01 -2.4455807964e+00 -4.7433052572e-02 -2.6319045891e-01 9.5681993269e-02
118 -1.7211035225e+00 -5.9766563176e-01 -6.6193158795e-01 -5.8776165378e-01 -3.1980609183e-01 1.0451748708e-01
119 -6.6303121978e-01 -1.0232770595e+00 -7.8844101976e-01 -1.7088937421e-03 -5.0665501789e-01 -6.3570851421e-01
120 -9.8156755395e-02 -3.3971380273e-01 -1.7010986738e+00 1.6808265328e-01 3.3229572261e-02 -2.3924485254e-02
121 -5.7575626723e-02 -1.3879466157e+00 -1.0255460274e+00 3.9166013661e-01 1.6786525874e-01 -1.1335878568e-02
122 -1.0021710612e+00 3.2066392816e-02 7.9124862011e-01 1.7687753397e-01 1.4308727171e-01 3.7645017529e-01
123 -8.0475310802e-01 1.8185126376e-01 3.6741758739e-01 -1.4043480463e-01 -5.9507502797e-01 -4.5222270608e-01
124 6.9272221114e-01 7.3110092287e-01 8.5750821236e-01 -2.1633994448e-01 6.8779763593e-02 -2.1845999067e-01
125 4.2189371193e-01 -1.0986990256e+00 -1.6412687128e+00 -3.2917407666e-01 8.6545318145e-01 8.4559035515e-02
126 -1.2846268519e+00 1.3579782786e+00 2.7154099747e-01 3.9558939521e-01 -9.1927086953e-02 -3.2443420050e-02
127 9.6469771725e-01 -9.7508037791e-01 4.8160784041e-02 2.3202874116e-01 -5.9219454598e-01 5.7894825521e-01
128 8.3731678890e-01 -1.4053009511e+00 -9.9918774917e-01 1.0892394946e-01 1.9660979098e-01 1.8061190485e-01
129 -7.9453668118e-02 1.0265053897e+00 1.3560235766e+00 3.7677471829e-01 -1.3204184758e-01 -1.2977863230e+00
130 -3.5754512185e-01 -3.4775685150e-01 -7.3326873758e-02 1.5128113744e-01 1.9035770900e-01 -3.0663418442e-01
131 7.0819858697e-01 -7.2592854233e-01 -1.4951670623e+00 2.8618336573e-01 2.9509877002e-01 4.9289564546e-02
132 -1.3995674025e+00 2.6594200243e-01 -5.5838497598e-01 4.2093180200e-01 -5.6121335564e-03 2.7671113034e-01
133 -5.5273731919e-01 -2.8736295633e-01 -8.4230749144e-01 -1.0121225803e-01 -4.7130769200e-01 2.7983957171e-02
134 9.6635948169e-01 7.6038332086e-01 -1.3865335380e+00 6.1398094342e-01 2.3536300499e-01 -2.5574409809e-01
135 1.9656057928e+00 2.4387123106e-01 1.2747159382e+00 2.3038905835e-01 8.8418429384e-02 -2.6008034535e-01
136 -8.4371480168e-01 -1.2071523022e-01 2.8723634116e-01 -5.0519639732e-03 2.4627622871e-02 2.4508541878e-02
137 -1.1054834880e+00 1.5092475113e+00 -4.2392045233e-02 6.6253566268e-01 -2.6240115917e-01 -5.8488314004e-02
138 3.8768736680e-01 -6.5241197767e-01 -5.8672205094e-01 -6.3748108749e-01 -1.1235402849e-01 -1.4728890869e+00
139 -7.9054618087e-01 -7.5897170054e-01 4.5014194670e-01 -7.9379182026e-01 -7.3502055001e-01 2.1900318188e-02
140 -5.6886415096e-01 -5.8162853408e-01 -3.4709494413e-01 -1.4684252003e-01 9.3979214615e-03 1.6541258006e-02
141 -1.0120455796e+00 -2.3152616739e+00 -2.7791540980e-01 -7.4992292550e-01 -2.8844525495e-01 -1.4029932969e-01
142 2.0505314995e+00 -1.4007299605e+00 -2.3745761527e+00 2.2644810710e-01 -3.6425438008e-01 4.3171940031e-02
143 4.2607023444e-01 2.7753480554e-01 7.5153594242e-01 -1.9031326240e-02 4.3726115736e-01 1.0482177313e-01
144 -1.0383466029e+00 3.9048032511e-01 1.8446983073e-01 -8.4814757902e-01 2.7339976658e-01 5.4573491939e-01
145 2.6729350877e-01 3.7926510072e-01 -2.5911402815e-02 -5.0438883591e-01 4.9946664995e-01 1.9766046259e-01
146 1.1713796808e+00 -7.2758982979e-01 1.5973669334e+00 -6.8350134380e-01 2.8229025715e-01 3.6661839683e-01
147 1.9330661528e+00 6.0875678966e-02 8.6818824893e-01 -4.6402018007e-01 2.2721564213e-01 1.8851198281e-01
148 2.8692779735e-01 3.7305977235e-02 1.0310794179e+00 5.3251229703e-01 3.8897080512e-01 -6.7730705850e-01
149 1.4665117100e-01 1.5691324284e+00 -4.0255051954e-01 5.8361816892e-02 1.2498470712e-01 1.2003693014e+00
150 6.5409931664e-01 1.7775466975e+00 1.0754463712e+00 1.7476384670e-01 -5.0613373778e-01 -2.9494215625e-01
151 6.2237148445e-01 1.6843485481e+00 -1.5166411928e+00 9.0184575280e-01 -4.4776950754e-01 -3.0371182070e-01
152 -4.2780297877e-01 -3.5865097662e-01 -1.3904852248e-01 2.1313042089e-02 5.9070750579e-02 -8.9703584250e-01
153 1.1826539303e+00 7.7838530743e-01 -1.1034707173e+00 9.5511014193e-02 1.0736959679e-01 -7.5963770392e-02
154 -3.3372356092e-01 1.0333033988e+00 -1.6379573649e+00 3.3629528413e-01 -1.6196418112e-01 7.8773060741e-01
155 7.2849857484e-03 6.1647648848e-01 -9.4733557888e-01 2.5423842681e-01 3.4631901384e-01 -1.1333381310e-01
156 3.9101993871e-01 6.7736232189e-01 1.5824380852e-01 1.4227103021e-01 -5.6794509673e-01 3.1231625227e-01
157 1.8677986485e+00 2.1276085856e-01 6.4976060992e-04 -3.7086359232e-02 -3.5756537029e-01 -1.8457330070e+00
158 -4.9890380607e-01 8.1811075080e-01 -1.6084692418e-01 -9.2064740564e-01 -5.7225309601e-01 -9.6954055967e-01
159 -1.4729028655e+00 -1.9488600834e+00 1.0884657132e-01 -1.0820387653e-01 -1.2487781108e-02 1.6998681536e-01
160 6.2426217558e-01 -9.6838322391e-02 7.0602224330e-03 1.3820488167e-01 -7.2323070497e-01 -5.1646922738e-01
161 -3.5387646472e-01 -1.0205669014e+00 1.3387551423e+00 -5.7446457984e-02 -4.6936032698e-01 -3.6701314997e-01
162 -4.1028049580e-01 -6.7047423384e-01 -6.9810688909e-01 -1.6516878717e-01 2.4803424580e-01 4.0319082447e-01
163 -7.4478368448e-01 1.9729530912e+00 4.9494046574e-01 4.9971085023e-01 2.4292140133e-01 4.1490915736e-01
164 1.5263597124e+00 -2.0414208439e-02 1.3240086806e+00 5.7935465062e-01 -7.7674277165e-02 -3.0026716762e-01
165 -5.9980917855e-01 -1.2416054861e+00 -1.3096362061e+00 -1.6636461612e-01 1.0396988281e-01 1.4676853865e-01
166 -1.0875787302e+00 -5.1787279593e-03 -1.4301247090e-01 3.5593089345e-01 -4.8306215975e-02 2.2228836557e-01
167 7.1071800143e-01 4.6068110282e-01 7.4863321279e-01 1.4581085065e-01 4.5997099003e-01 3.8999287192e-02
168 -5.1037479937e-01 1.4401860255e+00 1.5973319355e+00 -1.2584178109e+00 3.7110613136e-01 -2.9406944808e-02
169 1.0135797937e+00 -5.4410759434e-01 1.7201826053e+00 -9.8151148305e-02 3.6002298992e-01 -5.0035216130e-01
170 -1.8542362675e+00 9.0048166387e-02 -2.3046190349e-01 -5.7402171589e-02 2.8584711130e-01 4.5026985989e-01
171 -7.9966259226e-01 4.1896151511e-01 -1.3114840573e+00 1.7436466872e-01 4.9105964105e-01 9.0844437247e-01
172 8.5939393669e-01 4.2461463150e-01 -4.4747333750e-01 4.2769529208e-01 -1.9318819249e-01 -3.5424481047e-02
173 4.2612799954e-02 1.1087489328e+00 -7.8713581781e-01 -1.1074194865e-01 3.2614475923e-01 1.4622550667e-01
174 -7.4716907051e-01 -1.0023514574e+00 -2.4945936100e-01 -5.5080660871e-01 4.7030829409e-01 1.1460674769e-01
175 -2.4270130847e-01 -1.6205795850e-01 -1.4986886243e+00 -1.0430781676e-01 3.2351518745e-01 -2.5997694091e-03
176 -4.7618543490e-03 -1.8111467875e-01 -4.1936643662e-01 -7.9138397375e-02 4.8309585242e-01 -8.1230514875e-01
177 -1.6490237346e+00 -2.4796177547e+00 -7.6427544938e-01 -9.9596208017e-02 -1.1855329481e-01 1.1872836601e-01
178 -1.9836065889e+00 -4.4361993138e-01 1.2233138680e+00 6.0808972437e-01 -4.3742328779e-02 3.5203953146e-01
179 -7.4027942394e-01 -5.0942399089e-01 -1.4569175416e+00 -3.6490756399e-01 -1.1988987901e-01 1.6425311892e-01
180 7.0684363047e-01 9.8590096094e-01 -1.9790704437e+00 4.0572223501e-01 -3.8143433524e-01 7.2406012989e-01
181 -6.6043418001e-03 -6.0147250097e-01 -9.1689737795e-01 9.1327019880e-02 -5.1720295646e-01 8.1708087081e-01
182 -3.1305293510e-01 6.9181776422e-01 6.3001330815e-01 -9.8114021430e-01 -5.5411175131e-01 5.5812786677e-01
183 7.1260307707e-01 1.9170206867e+00 4.3752853035e-01 -1.0311531194e+00 6.5058171364e-02 1.1194780290e-01
184 -3.6577608565e-01 1.3507876347e+00 -3.8010654599e-01 3.0124088486e-01 -3.6224484531e-01 8.9768143865e-02
185 -5.4247423432e-01 8.9191595880e-01 1.1392578542e+00 -5.4019865927e-03 -9.7138987386e-02 3.5836843525e-02
186 -2.4572027256e-01 -4.2341891934e-01 4.9755208886e-01 -1.1752439999e-01 -4.8801386047e-02 -4.0907974163e-03
187 1.7322897120e+00 5.5957551940e-01 8.9902918200e-01 -5.6628447232e-02 -1.9324365627e-01 1.9903750382e-01
188 5.8765131452e-01 -1.8638961421e+00 5.8521185157e-01 2.4746024441e-01 5.2739594617e-01 -2.3656603079e-01
189 -5.6491819074e-01 -7.8850818861e-01 2.0536932828e+00 -2.0471434250e-01 3.9878925179e-02 2.7763990259e-01
190 6.9590100588e-01 -7.5078155394e-01 -9.6058880783e-03 -9.0224800569e-01 6.5016211556e-01 3.0229675012e-01
191 8.2346472346e-01 1.1655559307e+00 -5.4123373288e-01 1.8501226031e-01 -1.8916444901e-01 6.6113210962e-02
192 2.1394511371e+00 2.2649112045e-01 1.2633801804e+00 -1.2359414453e-01 1.3668161790e+00 -1.5863842991e-01
193 2.3230166877e+00 1.4082682896e+00 7.2648481247e-01 2.8576932886e-01 -1.1470576266e-01 1.0072361558e+00
194 8.9103824573e-02 -1.6052620759e+00 9.2983569854e-01 3.0725682484e-02 4.9007527751e-01 -4.5523035800e-02
195 2.9135333902e-01 -4.9322207372e-01 1.4355569326e-01 -6.4431976164e-01 7.4691379866e-01 1.0176416701e-01
196 -2.4437409963e-01 -6.2657458976e-02 6.7019522160e-01 3.4205041508e-01 2.6220514125e-02 8.4272490780e-03
197 -4.3646440083e-01 1.2162806383e+00 -7.4745654757e-01 1.0451211045e-01 -7.6251281671e-01 6.1427751966e-01
198 1.4023910721e+00 5.1321453700e-01 1.2559689708e-01 1.3063249342e-01 -3.3766077202e-01 2.0914820948e-01
199 2.2786267591e-01 1.4044810264e-01 -9.9376583384e-02 -1.3413248557e-01 -4.5922607142e-02 -2.0087639415e-01
200 2.2131357074e+00 -1.5252581905e+00 1.4305004882e+00 -3.2775804283e-01 -1.9927422724e-01 -7.4237459744e-02
201 9.1140967282e-01 6.1847579436e-01 -1.7204837197e+00 -4.1354308471e-01 2.3509751368e-01 9.6411598465e-02
202 -3.8419343691e-02 2.7950002118e-02 6.7452190686e-01 -2.0129985586e-02 -2.5373344040e-01 -3.3239090483e-01
203 1.1351622240e+00 1.1240229585e+00 2.4752579327e-01 2.3178040549e-02 7.1908233024e-01 2.7510545680e-03
204 1.0314378118e+00 8.4678019159e-01 2.2023846046e+00 1.7382842218e-02 1.6402570645e-01 -6.7609735359e-02
205 -6.6909347454e-02 -1.5513026687e+00 -3.1363552139e-01 -1.7064660693e-02 -2.1726358459e-01 -1.0607753511e-01
206 -5.6393833380e-01 -2.6310135650e+00 -3.3451372302e-01 -1.0098827378e+00 2.1201124434e-01 -1.8615344316e-01
207 2.3300477195e-01 2.8062109814e-01 -1.2211269050e+00 -5.2210661454e-01 3.7060890116e-01 2.8401428131e-01
208 7.0123540419e-01 -7.3540532768e-02 -8.5758446840e-01 5.6327217342e-02 -3.9482325404e-03 3.3256650848e-01
209 1.4605117814e+00 1.5153078269e+00 -9.3538828531e-01 -6.9942392708e-01 -3.2549335449e-01 3.5170032996e-01
210 5.7484049702e-01 4.6138720819e-01 1.3210025080e+00 6.3910071257e-02 -2.8793688160e-01 1.8805682901e-01
211 -5.0269886581e-01 -7.2802474323e-01 -1.9020828583e+00 6.8835567701e-02 -1.0256563015e-01 -3.5640148306e-03
212 1.5140589283e+00 -2.2247434105e-01 -5.1307361798e-01 3.8376721378e-02 -1.9236788101e-01 2.3961000270e-01
213 -1.3486117397e+00 6.6939757695e-01 -4.7386685934e-01 4.3768026922e-03 3.9041038340e-01 -4.4677708742e-01
214 -9.6812689510e-01 -5.8545458534e-01 -2.1552019148e-01 1.2436060484e-01 7.6733267012e-01 -7.6812073350e-01
215 2.7360452009e-01 1.0284231982e+00 1.7569270509e+00 -1.4181738038e+00 -4.7491512699e-01 -5.7578353768e-01
216 -1.2483685140e+00 4.9298128297e-01 1.7163063240e+00 1.2254323166e+00 -2.1062805337e-01 3.2094967293e-01
217 2.5248596116e-01 -1.2619238600e+00 3.4756748920e-01 -9.8451422782e-01 1.3447930291e-01 1.7523749851e-02
218 -1.1194585379e+00 5.8588799096e-01 -1.4658733880e-01 2.5377267128e-01 3.5767780889e-01 -2.1739609698e-01
219 -4.3798594405e-01 -1.9472715276e+00 -2.5020031768e-02 5.0015017056e-01 2.4310678673e-01 3.3910545372e-02
220 -5.5430988688e-01 -1.2142070960e+00 3.1598502929e-01 9.1257080538e-02 6.7166834434e-03 -3.5629615617e-01
221 -3.3109279362e-01 6.5832622421e-01 -2.1410861484e+00 5.4410871972e-01 1.1989280983e+00 2.0578084278e-01
222 -3.5986317520e-01 -1.1459198559e+00 -1.2765338056e+00 4.0991757489e-01 -4.7113498299e-01 -9.4880247663e-02
223 -7.1325824923e-02 1.9394514871e+00 1.0186800211e+00 1.6749877106e+00 -7.4852820258e-01 3.0070142060e-01
224 5.8422805095e-01 6.4407474048e-01 -3.6073073304e-01 -7.9710684207e-01 -1.6527808517e-02 -3.9878190111e-01
225 -2.2102325130e-01 -5.2412870583e-01 -1.9119623384e-01 1.0760716744e-01 3.5265463421e-01 5.1509806399e-01
226 2.0084409679e-01 -3.6238165928e-01 -9.3417090572e-01 -3.3068515994e-01 -7.0254370688e-02 2.6293953328e-01
227 6.4173332934e-01 3.0730316932e-01 -2.3284840636e-01 4.9745880544e-01 -1.8946223766e-03 1.8315553087e-01
228 -7.7601610395e-02 4.5711957666e-01 -1.8761825533e-01 6.0675680441e-01 -5.0700417448e-01 -4.0279823311e-01
229 -1.8730566785e-01 -1.2808804955e+00 1.1106215250e+00 -2.4093217431e-01 6.5318453913e-02 -3.3483650746e-03
230 8.6457161169e-02 -1.0485241527e+00 -1.2000360663e+00 -1.0363161872e-02 3.0921433230e-01 4.8439727445e-01
231 1.6456226102e-01 -5.9602187741e-01 6.9537851742e-01 -2.9013981058e-01 -1.6184576834e-01 1.8049643895e-01
232 4.6224499412e-01 -1.0388802781e+00 7.1245986246e-01 3.6394453512e-01 2.2447767380e-02 -1.4897691008e-01
233 1.2074345405e+00 -2.4027291163e-01 8.9710846749e-01 6.0362647372e-02 -1.5965186371e-01 3.8771548311e-02
234 -1.7890948764e-01 3.1333986316e-01 6.9997872531e-01 2.7336813686e-01 5.2353601103e-01 4.9696588239e-01
235 4.3937311781e-01 -5.9697098596e-01 1.1118151318e+00 -5.4970775206e-01 -1.2295915202e-01 -4.9053273960e-02
236 3.1330309051e-01 1.2223778563e-01 -9.6065869109e-02 4.3403640989e-02 6.9953363946e-02 -1.6500361917e-01
237 1.7259480886e-01 -1.3252536008e+00 -1.2021527751e+00 -3.5405723470e-03 3.6585675128e-01 2.2580436104e-01
238 -6.8430148298e-03 -8.1720237322e-01 -1.1954690602e+00 -1.6843575594e-02 -1.6964711239e-01 9.0021107113e-02
239 -5.3851942178e-01 -7.8200095150e-01 -1.4071417854e+00 -1.1336381139e-02 -1.2191807957e-01 -5.2650389337e-01
240 -5.6332493115e-02 5.3024439131e-01 -1.1467400181e+00 7.7519105494e-01 -6.9360652060e-01 4.5096093575e-01
241 -4.3500761567e-01 -1.4907726054e+00 5.4477052038e-01 -9.5463155664e-03 -4.7376427361e-02 -1.6321022471e-01
242 1.5891815552e+00 5.3463224747e-01 4.4965421409e-01 -6.1455869141e-01 -9.2570758121e-01 -1.9329218647e-01
243 -1.1572229432e-01 1.1487486262e+00 6.5122398913e-01 6.0909381320e-01 3.1406776205e-01 2.7459201363e-02
244 5.9327829996e-01 -4.5578318476e-01 -4.7582101640e-01 9.6911320235e-01 5.6204930687e-01 2.2347583425e-01
245 -3.4188800828e-01 -3.7512880396e-01 -5.5535509473e-01 -1.7682756769e-01 -7.0591984927e-01 2.8125667781e-01
246 1.4032466602e+00 -6.6441184509e-01 -4.3218174797e-01 -3.5288114710e-01 2.8444480601e-01 2.0778758080e-01
247 -1.7798919247e-01 -9.2317075625e-01 1.7949927899e-01 5.2054952955e-02 -8.5871519946e-02 -3.4374227821e-02
248 -6.7327621855e-01 -6.6331923658e-01 9.0918025324e-01 -9.0928355770e-02 -3.0578286363e-01 -1.4056039011e-01
249 -1.4744648577e+00 1.6015691467e+00 6.7828521829e-01 -2.3166720172e-01 -6.0331365991e-01 1.6589672884e-01
250 4.2044310269e-01 1.5576900395e-02 -6.1290357822e-01 8.0330397728e-01 -4.0188222949e-01 3.6140208385e-01
251 4.9607916698e-02 1.8737358187e+00 1.7208974448e-01 -6.3495711275e-02 -3.7457054159e-02 1.9314433481e-01
252 6.7710802295e-01 2.7954368202e+00 -4.9542798524e-01 7.4079536232e-01 2.5269699162e-03 -2.1808457717e-01
253 -2.8684288958e-01 1.3286182143e-01 -7.8990040819e-01 -1.5804486338e-02 6.6657080673e-01 4.3810305742e-01
254 -3.9204887084e-01 -1.1668696548e+00 -1.4480511492e+00 1.8052972461e-02 -6.4766309434e-02 -4.5990066065e-03
255 8.7740143440e-01 1.6687384022e-01 -3.3129170278e-01 -6.3463026978e-02 -1.6834994564e-01 6.7109202235e-02
256 1.6769322828e-01 1.2838227696e+00 -5.8421540475e-01 2.5173146241e-01 6.3308959901e-02 -4.8458505041e-02
257 -1.1160770628e+00 1.3992564600e-01 9.8457225286e-01 3.1630274281e-01 -1.5508490694e-01 1.7411470763e-01
258 -1.5755796051e+00 -3.4134799348e-01 -2.5716282897e-01 -4.2437180743e-02 -5.1972564978e-01 -8.4908229204e-01
259 7.3303654401e-01 -6.3525607134e-01 -3.4160704390e-01 -8.6307432479e-01 -5.1448816330e-01 1.7539157136e-01
260 3.0866520921e-01 5.7190501582e-01 -5.7581003599e-01 -2.0490594858e-02 1.5540482722e-02 1.5802875371e-02
261 -2.4769884244e+00 -1.2579021075e-01 -7.3364748366e-01 2.0381875309e-01 -3.6332101725e-01 -9.9539282544e-01
262 2.1699871184e-01 -5.4237866437e-01 -9.0531913370e-01 -5.9045218401e-01 -1.3387822918e-01 -7.3831666606e-02
263 -2.2459148820e+00 -1.5196108580e-01 1.0612113764e+00 2.2255221487e-01 -5.5320972879e-01 -6.7134599311e-01
264 1.9903491168e-01 4.7480710744e-01 1.9365071101e-01 1.0303141798e+00 1.2513725587e-01 4.8847367235e-01
265 -1.3782295662e+00 3.9512959449e-01 -1.4111864061e+00 5.3543309650e-01 -6.1540536606e-02 -5.4493621345e-01
266 2.1869263078e-01 -4.7689480701e-01 7.7582849633e-01 2.7593976938e-02 1.9605979002e-01 2.3028903997e-01
267 -2.5203531188e-02 -2.2022193004e-01 -3.3516135465e+00 -9.7208951745e-02 -4.6095159108e-01 2.7047245317e-01
268 -4.2134297323e-01 -3.5868601614e-01 -1.1991428381e+00 9.6924994350e-04 8.9318925741e-01 -6.9864465596e-02
269 5.9105776954e-01 -1.2904880948e+00 2.4997940149e-01 -5.7645634821e-01 5.4949393621e-01 -6.5836903294e-01
270 -8.8900876715e-01 1.0600045076e+00 -2.7551053200e-01 8.9369614575e-02 2.8116454972e-01 1.5011971257e+00
271 1.6107455562e+00 3.5411663083e-01 -1.9439552875e-01 4.5759692504e-01 -1.8446137966e-02 4.9896796164e-01
272 -7.4379484613e-01 6.9597173047e-01 -1.3425069892e+00 -5.4894247539e-01 -1.4836146161e-01 1.5949381046e-01
273 3.4315947813e-01 1.9910885310e-02 1.2345618767e+00 6.2549038870e-01 -5.8397167271e-01 5.6869316092e-01
274 -1.3002392712e+00 9.4639643020e-01 1.5241764962e+00 -1.0893727222e+00 -3.2269268783e-01 -5.0887907522e-01
275 9.7355832000e-01 -5.4994996464e-01 -9.2787885433e-01 2.1542824296e-01 4.5123012456e-01 -4.9389092591e-01
276 -2.8138666352e+00 -8.6470182362e-01 -1.0273883682e+00 -9.1888643793e-01 3.2023315464e-01 -2.6586708150e-01
277 1.1804628313e+00 -1.3418183679e-01 -6.1092369611e-01 1.9015035094e+00 5.9880414850e-01 5.9594793588e-01
278 3.6100174235e-01 -4.0291842748e-01 -5.5299817547e-01 -4.2440033536e-01 -4.9891915564e-01 4.6106095003e-01
279 1.4941593177e+00 -2.2720327933e+00 8.4575030278e-01 5.8392049499e-01 4.6158547931e-01 -8.5482996001e-01
280 -3.0982329431e-01 5.5172872134e-02 -1.5209081621e+00 -2.0010922251e-01 1.1759352732e+00 1.3522130816e-02
281 8.5379774175e-01 9.1452545200e-02 7.1962249920e-01 3.5821502396e-01 -5.9704668396e-02 -2.7056644331e-01
282 1.2502694914e+00 -6.2749902037e-01 -5.6331347007e-01 5.6716378801e-02 6.0993769914e-02 1.8827630158e-01
283 -1.6647279927e+00 -2.9180847700e-01 -1.9428260041e+00 -1.6025362867e-02 1.7551407600e-01 -9.7972139897e-02
284 -1.5724671855e+00 2.1594539467e-01 4.1759227204e-01 5.3669443627e-01 2.3086475808e-01 6.0214543434e-01
285 1.1547185576e+00 -6.9513641731e-02 1.8158181890e-01 -5.0305653729e-01 3.1209881537e-02 3.4556217153e-01
286 1.2515862481e+00 -3.2310969011e-01 -5.9696428646e-01 -3.2006022200e-01 -2.3409946005e-01 -3.5916158714e-02
287 -9.7625253845e-01 2.9473657824e-01 4.6770345465e-01 -2.4452386561e-01 2.3215763118e-01 5.8942705179e-02
288 7.7580388852e-01 2.3997888222e-01 -5.4656623771e-01 4.0886186881e-01 1.1917508717e-01 5.2658729767e-02
289 1.5829619236e+00 -8.0819979965e-02 -1.2078430903e-01 -1.9237967349e-02 -1.2406357432e-01 -2.6620248095e-01
290 6.6912221233e-01 -7.5113222263e-01 1.9257800159e+00 3.2163078452e-01 7.5437626167e-01 -6.4771887993e-02
291 -6.4004843004e-02 1.2650103308e-01 -2.8643067235e-01 2.9591156787e-01 5.2546023360e-02 -1.8059630636e-01
292 -7.9168197538e-01 2.7029658109e-01 -1.1713327435e-01 5.5842000953e-01 2.9685442465e-01 1.0594299938e-01
293 -4.7453161181e-01 7.8203458859e-01 1.0679436054e+00 -2.5462302480e-01 2.8719053854e-01 -4.0469146964e-01
294 -3.7682300514e-01 -1.7605639375e+00 -2.7010456050e-01 5.9546258298e-01 1.7400602974e-01 5.5492787697e-01
295 -8.4009831742e-02 -3.0867421293e-01 -1.7944191433e+00 -3.7041901596e-01 -1.0575440923e-02 8.4623848055e-02
296 5.7832236872e-01 8.3804325353e-01 -3.7479927815e-01 -3.7238750530e-01 1.6718263524e-02 1.7937179607e-01
297 -7.8267650616e-01 -4.7292961445e-01 5.4598214651e-01 3.0424616999e-02 3.4592279020e-01 -5.6360331357e-01
298 -2.1244581715e+00 6.3925956820e-01 -1.0631253889e+00 -1.4510745323e-01 2.1546172791e-01 1.1422190712e-01
299 -8.2372026894e-01 2.4105904159e-01 1.2004404436e+00 -2.6071813937e-02 -5.4207719492e-01 -1.1606498484e-01
300 3.0005533559e-01 -3.0141909413e+00 9.9615576481e-01 6.2854423850e-01 2.7306768015e-01 -2.6407884664e-01
301 -1.1612274657e-01 2.8865114391e-01 -9.5987582757e-01 3.7369869984e-01 4.9736009730e-01 5.7472885613e-01
302 6.0730212664e-01 1.8259552161e-01 -8.2524954384e-01 8.6805015382e-02 7.9632621349e-02 4.5365404445e-01
303 5.0257697403e-02 -7.9763880213e-01 9.9088861448e-01 -9.7824262338e-01 -5.2646327558e-01 -2.3819684620e-01
304 -1.7729585494e+00 -7.0714751977e-01 1.2714828435e-01 -4.9982437573e-01 -4.8696795069e-01 -5.1832558220e-01
305 8.4942647704e-02 1.1658685567e-02 -3.6570405044e-01 -5.3422033568e-01 -7.5135332375e-01 1.7559805179e-02
306 -8.4428405367e-01 7.5356917549e-02 -7.8790569659e-01 2.8833660524e-01 -3.1985486086e-01 5.9893445967e-01
307 5.7841145909e-01 -2.1114435881e+00 -2.8962424051e-01 9.8226156353e-01 -1.0162420170e-01 -2.7686187853e-01
308 -1.2972868393e+00 -5.1901281005e-02 -5.1981655570e-01 3.9576176984e-01 -5.5189568239e-02 -1.9732892722e-01
309 2.0162536410e-01 -1.2148228462e+00 5.1147733773e-01 2.4543979045e-01 3.4857196757e-02 5.9258137275e-02
310 2.4929596873e-01 1.9145621658e-01 1.3268143678e+00 2.7028178062e-01 4.3962790871e-01 4.3102263944e-01
311 4.3184773168e-01 4.2873334991e-01 -1.3685782899e+00 -4.8194726480e-01 -8.9172698012e-03 -3.2713977127e-01
312 -1.0564642136e+00 1.6682342637e-01 4.7019415527e-02 -3.6796675213e-01 1.1746919208e-01 -1.0484581328e-01
313 -1.1412512430e+00 -3.3364253835e-01 -5.0548050759e-01 -1.3444863345e+00 -1.3811355454e+00 -4.8282892514e-01
314 -4.0472288640e-01 1.8709728256e-01 -2.9901933286e-01 2.0850356771e-01 1.7803257977e-01 9.8034876491e-02
315 -8.0326589370e-01 1.4926074403e+00 7.5999346795e-01 -1.4355505037e-01 -5.4500693012e-01 6.5539901990e-01
316 2.3046213491e-01 6.5984559087e-02 -3.3486157216e-01 1.3395825765e+00 -7.1316967332e-01 5.4167857097e-01
317 6.3939735468e-01 -6.9613993751e-01 1.6931636321e+00 -1.1305061919e-01 4.7206384743e-01 2.9076646767e-01
318 5.1141281410e-01 9.2742189254e-01 5.7654834655e-01 -2.5361699480e-01 4.3237590006e-01 4.5300764072e-01
319 -2.6317950397e-01 1.1804752287e+00 5.1925330550e-01 -2.0951662597e-01 -7.0342449542e-01 9.3425034931e-01
320 -1.7681045968e-01 -1.6759166703e+00 3.9928468001e-01 -1.2693294885e-01 -3.0419239527e-01 -2.5315521112e-01
321 4.2701551199e-01 -7.8432947974e-01 -2.6452331097e-01 2.5168584514e-02 7.8842032655e-02 -4.6925788664e-02
322 3.9848998185e-01 6.5662575349e-01 7.0826074137e-01 9.4036843838e-01 -2.5536199971e-01 3.4389558134e-01
323 1.0750023113e-01 3.7208026844e-01 5.3527022870e-01 6.7225112345e-01 -2.4609210259e-01 -7.5479536395e-01
324 3.8966265337e-01 8.9003895691e-01 -6.8661284059e-03 -9.7158049753e-02 -1.7615960253e-01 2.6050235763e-01
325 -3.3780549821e-01 -7.6974843393e-01 -1.0292056007e+00 1.8719087599e-01 -1.8624752792e-01 7.3543852449e-01
326 2.9896064723e-01 -1.0427587403e-01 -3.6196289748e-01 -1.0757597938e-01 5.6872042961e-01 3.2132612984e-02
327 8.9183553603e-01 -1.4645629492e+00 -3.1158743864e-01 4.8541970731e-01 3.8773626440e-01 -3.9280819842e-01
328 -5.9913142389e-01 3.2895844244e-01 -9.1407995992e-01 6.8067734938e-01 -5.3149429737e-01 -5.0235556016e-01
329 -2.3595906877e-01 5.1883904711e-01 -1.2784345500e+00 -2.1378832791e-01 1.7194438284e-01 8.0523912148e-02
330 -9.8062426539e-01 1.3593040304e+00 7.4472027657e-01 2.0031243139e-02 -7.7753783320e-02 -5.2423729259e-02
331 -5.2950945904e-01 -1.0812085072e+00 -3.5821151675e-01 2.4126243739e-02 3.1316490704e-01 -7.6788264413e-01
332 -5.5853698243e-01 5.3660008219e-01 -1.8453574862e-02 -1.7364409054e-02 -2.0817570776e-01 1.3128622714e-01
333 -1.2406547195e+00 1.1741933765e+00 2.7769107170e-01 2.4916959210e-01 -6.1653281859e-02 9.8113197750e-02
334 1.2440774109e+00 3.2127957143e-01 3.4127689253e-01 4.0367973333e-01 6.2374488057e-02 -4.3697511585e-01
335 3.1159524308e-01 1.5107967354e+00 -1.7186346617e+00 4.5044869131e-01 4.0933523477e-01 8.7627525835e-01
336 -1.1100836621e-02 1.4972426812e+00 -1.3086662648e+00 3.5660516386e-01 1.6663657713e-01 1.8417649200e-01
337 2.3838655711e-01 -1.3852795925e+00 4.1334784701e-01 -2.9598506997e-01 6.5193073695e-01 -1.4347674986e-01
338 7.3331598997e-01 5.2098913805e-01 8.5320417550e-01 -6.3566865956e-01 -8.9931831641e-01 1.1620701160e-01
339 -1.0091192542e+00 -4.7619555018e-01 -2.5521827814e-01 6.8651072521e-02 8.1404081953e-01 -9.4050102847e-01
340 -7.4699368550e-01 3.5501897457e-01 2.3294010825e+00 1.8656693056e-01 2.9609302402e-02 2.4285997059e-01
341 1.5080275907e+00 -1.1801767367e-01 -1.4309399438e+00 2.3498528306e-01 -6.5761557992e-02 -1.5843236328e-03
342 -1.6183279162e+00 4.5196940258e-02 5.1261638847e-01 -3.4294201136e-01 8.2166083977e-01 6.3602507654e-02
343 -1.1884194997e+00 1.5011204562e-01 -8.5083557179e-01 -4.5305820829e-01 7.1686093469e-01 1.7066841892e-02
344 6.5867686798e-01 1.3233769412e+00 1.2648032955e+00 2.4106628702e-02 -1.5765601554e-01 3.0162390952e-01
345 -1.6206855030e+00 1.5621625642e+00 -1.6192408301e+00 8.2487801829e-01 -1.2610891365e-01 -3.3056919792e-02
346 2.8612719561e-01 -1.9055207259e+00 6.5338268905e-01 -6.9433482459e-02 -6.7623704905e-02 3.9426302652e-01
347 3.5291306625e-01 -7.4598882151e-01 -3.3431443902e-02 3.6468237450e-01 4.7125393370e-03 -5.9802981903e-01
348 -8.1681494284e-01 -5.0813420018e-01 1.0057775031e+00 5.8577129281e-01 -5.8765660100e-01 -3.0747552617e-01
349 9.0785579754e-01 -1.0768353367e+00 -1.1806104709e+00 -2.4410302880e-01 8.8568479198e-01 1.2187501052e+00
350 7.3299974155e-01 -7.0574905005e-01 2.7862393054e-01 2.4117329867e-01 3.5533750760e-01 -2.9233523029e-02
351 -9.3456241068e-01 7.6817056031e-01 -6.5298447478e-01 7.8564086689e-02 3.2555609887e-01 2.0614273889e-01
352 -6.8472042735e-01 -1.5900616460e+00 -5.1538767843e-01 -1.1623304411e-01 5.1870520592e-01 7.1207296392e-01
353 1.0014511716e+00 1.0244527128e+00 1.7195077566e+00 5.0809858942e-02 -1.5931300650e-01 2.9231313676e-01
354 -9.7088237998e-01 -1.2420320432e+00 2.9624522898e-01 6.2293531034e-02 -4.1886709600e-01 -4.1271340644e-01
355 8.6654866459e-01 1.4649149031e+00 3.6133005684e-01 1.1689340374e+00 -6.9201794003e-01 2.4643710335e-01
356 5.8822886658e-01 2.0560551928e-01 -6.7277646115e-01 2.3853642057e-01 -3.6443539589e-02 2.5182898744e-01
357 5.1651271681e-01 -1.1216827893e+00 -4.9030029532e-02 3.9924680128e-01 2.0864041663e-01 -7.9804381341e-02
358 1.1188713436e+00 2.1794701516e-01 9.5410183063e-01 2.6835857615e-01 2.3288480893e-01 6.3993715250e-02
359 4.5601450981e-03 8.2788684805e-01 3.8019108965e-02 5.1707719691e-01 8.2777708887e-01 -8.3594168262e-01
360 1.3183427349e-01 4.4020749795e-02 -3.2164295051e-02 -7.4810645800e-01 -5.5737231444e-01 -5.2362307721e-01
361 -9.4757458158e-01 -6.0259606621e-01 1.1386708482e+00 -1.5396893916e-01 -6.6635456531e-02 1.8668051923e-01
362 1.8073428194e+00 7.8787240990e-01 -2.3597907062e-01 -4.9170212390e-01 1.4549026704e-01 -9.4464741233e-03
363 3.7156945701e-01 -2.9015727859e-01 5.1380346742e-01 -3.5597337438e-02 -3.8455217140e-01 7.9487329785e-01
364 -1.8839485834e-02 3.0642010532e-01 -1.1789215703e+00 6.3532625536e-01 7.1436065007e-01 9.0049248167e-01
365 1.1165487038e+00 6.7160586425e-01 -2.2830968634e+00 4.3991467151e-01 -3.5793893003e-01 -4.3325161949e-01
366 -1.1280658260e+00 9.4499038849e-01 -4.2153015595e-02 -9.6171370135e-02 5.4752603201e-01 -3.6696712945e-01
367 -5.6419695456e-01 1.0364706936e+00 -2.4062110549e+00 9.9822249004e-02 -2.3834927726e-01 -1.9452448168e-01
368 -1.9174769136e-01 -6.5583545660e-01 -1.6739186889e+00 -8.8016674735e-01 9.4114178015e-02 -6.2653335817e-01
369 6.5430835429e-01 -1.1876587350e+00 1.4970571953e+00 -2.0420678591e-02 4.9889894295e-01 -5.4640606357e-01
370 -1.5157979343e-01 1.0118566978e+00 9.6347403775e-01 -1.3109937418e-01 -5.4279339007e-01 -3.7519100214e-01
371 -1.3158916091e+00 3.9439092450e-01 1.1027960761e-02 5.1693304811e-01 -4.1224693782e-01 4.1002379261e-01
372 5.7410660856e-01 6.1473007676e-01 7.7241284263e-01 -4.1962018319e-01 -9.6112255756e-02 2.7156718805e-01
373 -2.6091468484e-01 9.2940899409e-01 -1.4537628992e+00 -3.5257301094e-01 3.2692415764e-01 2.8800473488e-02
374 1.2267367554e+00 1.0614297554e+00 -1.9692737341e+00 -3.2810174526e-01 -1.3512210870e-01 7.9076639289e-02
375 1.1661320220e+00 -1.8068988035e+00 1.1073511539e+00 1.6247656954e-02 9.0944354712e-02 -2.3632167051e-01
376 -1.3550227273e+00 2.0440600256e+00 4.7241992362e-02 -4.3313854728e-01 5.8971077159e-01 -4.7459288136e-01
377 2.2421513417e-01 -3.5514402401e-01 1.0905577772e+00 -1.9287545048e-01 -3.2587309040e-01 8.4169199751e-02
378 1.1167482866e+00 1.5004815349e-01 -3.8285070321e-02 -3.4826594298e-01 3.4538340518e-01 1.7278686115e-02
379 1.3168197140e+00 -1.3503914157e+00 -6.1512491316e-01 4.8855407398e-01 1.0991335817e-01 8.7080313578e-01
380 -1.5080314271e+00 1.0089572445e-01 1.0021451391e+00 -9.5334788396e-03 1.8412899219e-01 6.8240619128e-01
381 -3.2917370189e-01 7.2500820730e-01 7.0966368000e-01 6.7719258354e-04 -1.3659575029e-01 -2.9630219830e-01
382 2.1560774455e+00 5.7067435462e-01 -9.0358012295e-02 1.4388878187e-01 -4.6174435962e-02 1.5865594766e-02
383 1.3200400550e-01 -6.3791008658e-01 1.2658104685e+00 -1.5057629699e-01 9.2404973692e-01 -4.9151891824e-01
384 -1.2066072935e+00 2.5988095289e-01 2.9807569801e-03 -9.7509346167e-01 8.5739661318e-03 -4.8688408122e-01
385 -8.4467540622e-01 -2.8997323839e-01 -9.6716079119e-01 2.3191072456e-01 7.5083128472e-02 -4.5583428487e-01
386 4.2865269897e-01 -3.1929847142e-01 -1.1716669867e-01 -9.8145648215e-01 -1.9417205294e-01 -1.0300780132e-01
387 -1.6740530719e-01 -1.1667649236e+00 -7.8792758186e-04 -1.2865783329e-01 -4.5501201782e-01 -5.2291058418e-01
388 -1.0599777374e+00 4.1895705803e-01 -2.3283059852e-01 -6.3510351982e-01 -2.2575381603e-01 1.8892587039e-01
389 -2.5442392059e-01 -1.2263444481e+00 -2.4019481789e-01 -1.0738183646e-01 4.3917393412e-01 -7.2861528265e-02
390 7.2667643884e-01 1.3169613962e+00 -2.3839301637e-01 -3.0861433075e-01 -4.9175674284e-01 2.0702135172e-01
391 1.0098577916e+00 -4.7370126972e-01 -1.2158295363e+00 2.4996893216e-03 6.2987170477e-02 2.9259029082e-01
392 8.7439504933e-01 2.9572999435e-01 2.2381995465e+00 8.4250030051e-01 3.2031593858e-01 -8.6858405419e-01
393 -7.2921700000e-01 2.6358938690e-01 1.3059692436e+00 4.5392094579e-01 8.2845832493e-01 -4.4481238429e-02
394 -2.7477003635e-01 -8.3882908422e-01 3.8015633527e-01 -1.8921300698e-02 -3.9418874909e-03 -2.4541590394e-01
395 1.0407932714e+00 -3.3345210357e-01 -1.1536376987e-01 6.3830126968e-01 7.6411960681e-02 -8.6040421283e-02
396 -1.9242597552e+00 -2.3022349699e+00 1.0361638601e+00 -1.4672548077e-02 3.1457895501e-01 -5.8363085131e-02
397 1.5171424199e-01 1.2239894858e+00 1.1218123916e+00 -3.9149154981e-01 1.0342197547e-01 -1.7686987649e-02
398 4.6117295407e-01 -6.3938597273e-01 8.6785614571e-01 -1.2176234474e-01 -1.3513414910e-01 -6.3839456191e-02
399 -5.5284786440e-01 -9.8612825871e-01 1.4343991336e+00 3.3695172532e-01 -2.7912866785e-01 -3.3416771537e-01
400 -7.8692011982e-01 -5.1476833920e-01 -6.1310513974e-02 4.1194043735e-01 -2.1355242626e-01 -1.8058101044e-01
401 1.4835609258e+00 9.3976117649e-01 -1.4117681751e+00 6.8135568863e-02 2.9181562453e-01 3.4702501911e-01
402 -8.9571116506e-01 -1.1053608463e+00 -1.2585870745e+00 -3.9194411313e-01 8.0771299644e-02 3.7415474363e-01
403 5.6239210332e-01 -3.6289524791e-01 -2.1217090190e-01 -2.9805221628e-01 -1.0372391831e-01 -4.9247533529e-01
404 6.8738824321e-01 6.0633719918e-01 1.3797830266e+00 -5.8057684768e-01 -6.0524925182e-01 -5.1780966932e-02
405 1.1077719950e+00 -4.6433755006e-02 -4.3382355482e-01 1.3917823785e-01 5.5411020533e-02 -4.0521061947e-01
406 7.3366433431e-01 5.3291977392e-01 -5.7654292237e-02 2.4115882783e-01 1.7168976396e-01 3.4193852145e-01
407 -6.0945530492e-01 -1.6931775106e+00 -1.6527698548e+00 1.6114734386e-01 2.9814911835e-02 1.9693961869e-01
408 9.4400935469e-01 -4.9342377588e-01 1.2691851727e+00 6.1387082901e-02 4.5933517357e-01 -5.1047472293e-01
409 -6.6979844059e-01 -1.1656861849e+00 -1.0353582002e-01 -7.6645796378e-01 -4.2490852757e-01 -1.3023093179e-01
410 1.2778594406e+00 -1.3507699888e+00 1.0209701276e+00 6.5821910341e-02 -3.2059049402e-01 -6.7612177444e-01
411 -5.7554079358e-01 1.1950399154e-01 6.2207241960e-01 1.1780271539e+00 3.5714512843e-01 -8.0479097543e-02
412 2.5641666132e-01 3.4166334402e-01 4.1136787188e-01 3.1966899067e-02 1.9621161912e-02 1.6743941670e-03
413 8.5871938788e-02 -2.7918026180e-01 -1.2433851060e+00 1.2352225272e+00 -1.0770927756e+00 -1.8640404885e-01
414 -5.4112628408e-01 -8.4183412676e-01 6.5585097302e-01 -1.1466546314e+00 1.8622552539e-01 1.3039360773e+00
415 9.6848928071e-01 1.0379325117e+00 -1.3743220892e+00 4.0991544064e-01 -3.2621841974e-01 6.3746290779e-01
416 3.8019176606e-01 -3.3085640159e-01 2.2789458549e-01 -6.8100283351e-02 8.9271052468e-03 -9.4680892694e-02
417 1.6078743124e+00 -6.8286305788e-01 1.4146710809e+00 -1.2943021738e-01 9.9411130044e-02 -1.4070034634e-01
418 9.6902053389e-01 1.5235491113e+00 -7.7756262491e-01 1.9196710394e-01 9.5497898626e-01 5.1108056698e-01
419 -1.0753779726e+00 -1.9132997845e+00 2.1974924988e+00 7.6253180635e-03 3.9102499013e-01 2.8574004653e-01
420 -2.0999969962e+00 5.9930060323e-01 1.4935639852e+00 3.4773072718e-01 3.4803370705e-02 -1.5126435996e+00
421 1.1652196955e+00 -3.1134944191e-01 8.2784227242e-01 6.5024623509e-01 -4.2862653204e-01 1.9198994981e-02
422 1.1861958031e+00 -1.6092752845e-01 9.2483716176e-02 -4.1161578279e-01 -1.8897440128e-01 -2.1512493440e-01
423 1.7735980406e+00 -1.0553705729e+00 2.9269356495e-01 8.3529271686e-02 -4.0823352457e-01 4.0849646362e-01
424 1.0198526775e+00 -5.2678207030e-01 -3.4155305866e-02 2.3596446073e-01 3.3689968534e-03 -2.8602147300e-01
425 -4.0684384555e-01 3.5246955879e-01 1.3204258095e-01 1.6068870828e-01 5.1280048733e-01 -2.7887872082e-01
426 1.0971006688e+00 -1.2768632717e+00 1.9862902899e-01 -4.0028366704e-01 -2.3803221809e-02 1.3334663461e-01
427 1.3092657873e+00 -2.8681231430e-01 -9.5784412124e-02 -3.8889607720e-02 7.5898418288e-02 -1.2072081860e-01
428 2.3955895077e-02 -7.9718653916e-02 8.1080914855e-01 -2.5114483569e-02 -4.1068921955e-01 1.6676184276e-01
429 -1.5144188956e-01 -1.1857356050e+00 -8.2574805238e-01 -1.8445793471e-02 -1.4455048724e-01 8.8553759135e-02
430 -8.8591288620e-01 -5.1078652506e-01 -4.2930347334e-01 -8.4869580295e-02 -1.2805996638e-02 -5.9481205140e-01
431 -6.2817329429e-01 -3.1535991306e-01 -1.1366220754e-01 6.1605391051e-01 2.3343383349e-01 2.2823821546e-01
432 5.8759999237e-01 -1.5387831691e+00 -3.7731933256e-01 2.6375800514e-01 1.2306607650e-01 -2.2694615666e-01
433 6.5879583890e-01 -9.0613821737e-01 1.1426416560e-01 -1.2314847947e-01 3.5817617917e-01 -1.9312727944e-01
434 5.0484729682e-01 -1.2105407623e-01 3.5043267063e-01 2.3308376285e-01 -6.7850041058e-01 2.4165625803e-01
435 5.5680727971e-01 -8.2045937728e-01 7.9317975730e-01 4.6905488788e-01 -1.0357164596e+00 1.6148584180e-01
436 1.4209325876e-01 2.7512600149e-01 -3.9985673743e-01 4.8056874644e-01 -4.2508546248e-01 -3.4293433319e-01
437 1.9173052873e+00 1.9045289608e+00 1.8684242693e+00 4.1637475083e-01 -8.6865044598e-01 3.2067315391e-01
438 -1.6341620595e+00 -1.0288243591e-02 -1.1035481108e+00 1.3624630827e-01 2.3789649849e-01 -2.4313574673e-01
439 -5.2398803920e-01 -1.0700846434e+00 1.9265211322e+00 2.5426002114e-01 -7.8592720488e-01 3.3514661711e-01
440 -1.4873248402e+00 -8.5136142601e-01 -7.0961392618e-01 6.6000401027e-01 -7.4743049344e-01 -1.5775092538e-01
441 -1.9276258174e-01 1.1116843576e+00 8.7968320864e-02 2.3605312142e-01 -2.5883918118e-01 -4.0745040543e-01
442 6.6296163996e-01 1.1923740029e-01 -2.9796447677e+00 3.5360515994e-03 -4.3938934921e-01 2.9382873945e-01
443 8.2717536481e-01 8.3223229476e-01 4.1545149449e-02 -1.1196615779e-01 2.7180072959e-01 2.3381181894e-02
444 5.6135640871e-01 -3.7955637313e-01 6.8126744524e-01 -5.2796760286e-02 -3.2679668959e-01 -7.9269184365e-01
445 1.0602115696e+00 4.3632145846e-01 2.6905123779e-01 1.0188500030e+00 1.9407013505e-01 6.3881085971e-01
446 -9.2164304680e-01 3.8596599585e-02 -1.2652629440e+00 -6.4446128606e-03 -5.6998870742e-01 9.4303571253e-02
447 -4.5762067272e-01 8.0582287674e-01 7.9461946215e-01 -3.9230884378e-01 -7.3038711587e-01 4.1453226758e-01
448 -8.3053178262e-01 4.2988463716e-01 9.6958835115e-01 4.4774541307e-01 7.0284818828e-01 1.2864815056e-01
449 1.6223112053e+00 -1.2616059822e+00 2.5790033067e-01 2.3674872917e-01 3.9809182972e-01 2.7380014005e-01
450 3.8565596786e-01 1.7698371373e-01 -7.1746450914e-02 -1.9667555302e-01 -3.4566306217e-02 4.4747972117e-01
451 -5.9411703223e-01 1.0214484289e-01 1.2784489011e-01 1.0170629902e+00 -1.4195351007e-01 -1.1477549467e+00
452 -1.1063489318e+00 -2.6748157967e-01 3.9385659025e-01 -9.9406024641e-01 -2.9174215653e-01 8.2916117172e-01
453 4.8461761856e-01 5.8939641280e-01 -3.7174235841e-01 -7.1366930052e-01 -1.1717613699e-01 1.0292741166e-01
454 1.3358317101e+00 -1.0177300218e+00 1.5551287976e-01 8.1839380734e-01 -1.2828825560e-01 -1.6719077346e-01
455 -1.2039696719e-01 1.1398539017e+00 -4.8062174088e-01 -4.2481813627e-01 -3.0516788111e-01 8.7709822702e-01
456 -2.1066284555e+00 5.1797038161e-01 -1.8926177629e-02 -5.7399562016e-02 2.6339221923e-01 9.7429373731e-01
457 -7.0755186144e-01 6.8460670384e-01 -5.7543316253e-01 -2.1881029212e-01 -3.6279717504e-01 1.0810299916e-01
458 -6.4642517414e-01 -2.2092664695e-01 -1.1732090314e-01 5.3236801475e-01 -1.1500207796e+00 -6.4249716704e-01
459 2.1786404755e+00 9.1633702140e-01 7.0425553662e-01 -3.0980007438e-01 -4.6160929239e-02 -2.3804801724e-02
460 -3.6066982124e-02 -1.6124426545e+00 3.8465444350e-01 -2.9101974065e-01 4.6597060659e-02 1.0640270250e-01
461 -2.7869683214e-01 -1.3433488462e-01 2.0343689601e-01 6.1122648058e-01 -1.5740408189e-01 1.1514000082e-01
462 -5.4983058609e-01 2.1140762823e+00 -1.7620027835e+00 3.9964810456e-01 5.7509617801e-02 1.9681947970e-01
463 -2.3581416638e+00 5.6135167495e-01 -1.5759933593e+00 8.4518583741e-02 4.1300403390e-01 2.1372839860e-01
464 -2.4126857517e-01 9.3673157514e-02 -4.9495962909e-01 -8.6045658113e-01 2.0633286453e-01 1.7463957144e-01
465 7.6200835283e-01 1.5998881423e-01 -3.0672107581e-01 2.2443071598e-01 4.3003081188e-01 -1.1693946440e-01
466 -2.2827438414e-02 9.4172976836e-01 2.8053319036e-01 1.0718457169e+00 -2.0929488197e-01 -6.9952531901e-01
467 3.4864763805e-01 -1.3246861778e+00 -2.7580917170e-01 5.0559954143e-02 -8.9773588019e-02 -2.0780370486e-01
468 -3.2425709894e-01 -5.4914189319e-01 3.8516025396e-01 5.1552818598e-01 1.9649901200e-01 -9.1589138203e-01
469 -8.0397995793e-01 1.5941056578e+00 3.0343574090e+00 -5.5882062054e-01 2.1049858736e-01 -1.9176349179e-01
470 -1.1100580721e+00 -3.7415595667e-01 -1.8444126127e+00 -2.3065057340e-01 1.4811695690e-01 3.2005629392e-02
471 1.2405292291e+00 1.0505205779e+00 -1.2950761642e-01 -1.0633945290e+00 6.0317472207e-01 2.7941527976e-01
472 -3.5636085396e-01 1.3756482518e-01 -1.5897759626e+00 5.0842603270e-01 -3.4875589213e-01 2.9158800700e-01
473 -1.6892877202e+00 7.1145888367e-01 -2.4766088824e+00 3.4214460773e-01 2.2932061331e-01 -1.3706267711e-01
474 -4.3882023781e-01 1.7014498239e+00 -1.0240646060e-01 -3.1589903668e-01 -3.5042962640e-01 -8.9120578520e-01
475 1.0239194543e+00 8.1073146358e-01 4.1806206235e-01 -9.4736278911e-03 -5.1826251287e-01 -7.0903098172e-01
476 -5.6602328315e-01 6.9390639515e-01 -4.0063430463e-01 -8.5275562277e-02 1.0431716527e+00 -6.3228866047e-01
477 6.8355700853e-01 -1.7314052158e-01 -3.3855817372e-01 -4.2524944592e-01 4.9293184814e-01 -7.6616534498e-01
478 -4.7804056196e-01 8.1166539716e-03 -9.6001081721e-01 -2.4960720930e-01 -4.0163520572e-02 1.1087081761e-01
479 1.0296234085e+00 6.4091571301e-01 -2.5471422964e-01 -3.6066210243e-01 -8.1045801916e-01 -1.6173587888e-02
480 -7.6841171641e-01 1.3278605120e+00 -5.9835955593e-01 7.6051948180e-01 -7.2008154752e-01 -3.1207790930e-01
481 -9.3138967602e-01 -2.0638977513e+00 8.3901809009e-01 -1.9520293035e-01 -2.3005983200e-01 1.6812289218e-01
482 8.8042521417e-01 -2.8639705633e-01 4.0694120684e-01 -5.0511047236e-01 -7.7241680052e-02 -8.2293660682e-01
483 5.7956155869e-01 7.4073110527e-01 4.9738376095e-01 3.0146213748e-01 -3.6889595931e-01 -7.7264230433e-01
484 9.2538567376e-02 2.7621498711e-01 1.0942646935e+00 -9.7723818263e-02 -2.8062589326e-02 6.8086778081e-02
485 5.9307573211e-01 -7.7350264655e-01 4.6727657168e-01 -3.0334903606e-01 5.5647512453e-01 5.0345083635e-01
486 -1.7235891058e-02 1.2479844392e+00 8.8127382957e-01 -3.2698098525e-01 -6.2231995266e-02 3.0667999687e-01
487 7.1655421705e-01 5.7057051938e-01 -1.1992411407e-01 -5.3724250961e-01 -4.5592391084e-01 2.8887007435e-01
488 1.2722286986e+00 4.4805778668e-01 -5.9636195846e-01 -1.2464275308e-02 -2.4909703949e-01 -4.0023877483e-01
489 -5.0503589574e-01 7.7359584027e-01 -8.7198533017e-01 2.2807417530e-01 5.5855557833e-03 -5.1720611543e-02
490 7.6728205103e-01 4.4457354904e-01 -6.8580301973e-01 -4.7381266474e-01 -9.4884444747e-02 3.0529694084e-01
491 1.2660171971e-01 -2.5108382492e-01 1.5503651549e+00 -3.2116466803e-01 -9.9210527401e-01 -3.0635489625e-01
492 1.0208737696e+00 5.4857360864e-01 -3.7880443008e-01 -1.7346471595e-01 8.1691203196e-01 6.3325813587e-01
493 1.8616827544e+00 1.8959618999e+00 -1.2326821277e+00 4.7989321245e-01 6.5652819770e-02 5.4115366784e-01
494 1.6082566952e-02 -1.9952333365e-01 1.1471175934e+00 -3.2764391197e-01 -1.1181789648e-02 -2.1264459076e-01
495 -1.1336238158e+00 -1.1577936985e+00 1.4161160567e+00 -2.4806629078e-01 2.0418520383e-01 5.9419151444e-01
496 -8.8228644660e-01 -9.5782982301e-01 -1.4648705703e+00 5.0429558078e-01 3.9657923773e-02 1.7928307360e-01
497 -5.7841325972e-01 3.3720614754e-01 1.9170911583e-01 2.6843607966e-01 3.2182254780e-02 2.8363947306e-01
498 -2.9948328118e-01 1.1770288121e+00 -1.5301348137e+00 2.8909198699e-01 6.1201871425e-01 1.0454923235e+00
499 9.0392468282e-01 -2.3825032100e-01 8.5794232838e-01 -4.8030362309e-01 4.4672524819e-01 1.1799066246e+00
500 -1.2467319642e+00 1.0484919385e+00 1.0352533456e+00 1.8674212634e-01 8.2594537140e-01 -1.1324360371e-01
501 1.1393410086e+00 -3.0409612164e+00 -8.0864700643e-01 1.4567452390e-01 1.1896582725e-01 1.5565722548e-01
502 8.7972878152e-01 3.8925195910e-01 1.7726803364e+00 7.4940965575e-01 -1.0540224961e+00 1.2769518339e-01
503 8.4883269436e-01 3.9183856920e-01 1.7652556099e+00 1.0510411702e-01 -2.0177392114e-01 1.8642490677e-01
504 -7.1717301904e-01 3.9158173096e-01 -9.3159183808e-01 8.7620725188e-01 -4.0941869993e-02 -6.9188670629e-01
505 -4.8062006195e-01 1.1388349908e+00 2.0054280457e-01 -2.3531833212e-01 -9.4534193194e-01 -1.2139955669e-01
506 6.4522622275e-01 1.8284723636e-01 8.2386243384e-01 1.2747642386e-01 -7.9765655389e-02 -1.7826494342e-01
507 7.3824478391e-01 -2.4696506764e-01 -5.5747997370e-01 -8.9962935803e-01 -7.0950359096e-03 -8.9550097592e-02
508 9.6959141567e-01 4.0099937693e-01 6.5898999705e-01 1.1151734951e+00 1.7738557038e-01 -2.7664540454e-01
509 9.7342952316e-01 3.5552377149e-01 -1.5788978033e+00 -4.9598558379e-01 4.3340710430e-01 -4.5357741092e-01
510 -1.5035735950e+00 4.0130339342e-01 -6.1332025188e-01 4.3563591229e-01 8.0209453269e-01 -4.5776456599e-01
511 1.5719021143e+00 1.4860273028e+00 5.0350138304e-01 -4.7226736800e-01 -7.0987908689e-01 1.1307207267e-01
512 -6.7962673787e-01 -4.1588544913e-01 8.2720271208e-01 6.7654154415e-01 5.1251712157e-01 1.9800234443e-01
513 -5.0615634796e-02 1.7694100283e-01 1.5924720518e+00 -2.5268960291e-01 1.0423966558e+00 4.8986408044e-01
514 -1.9063501151e+00 -6.1338475193e-01 -2.3229365306e+00 6.5160699296e-01 5.1015208512e-01 1.1182348723e-01
515 -2.1067661579e-01 -1.1437021703e+00 -1.9946060491e+00 -2.7330868431e-01 3.7972813089e-01 -2.2584901313e-01
516 1.2722165255e-01 -1.5059714678e-01 1.1666372420e+00 -8.0108414715e-01 -1.5546018199e-01 2.6471006123e-01
517 4.3944077752e-01 5.3722531557e-01 -4.8678038451e-02 -1.2747403493e+00 -1.0617594589e-02 -3.8195853809e-01
518 -5.3947602347e-04 -1.5621849438e-01 4.2305017236e-01 -7.9103913221e-02 1.3264077316e-01 -3.1186279591e-01
519 1.4611898026e-01 3.0534292413e-01 2.6447217970e-01 1.0796178524e+00 -4.9611327592e-02 4.8022444567e-01
520 -1.9129921486e+00 -1.2790316372e+00 1.4443561043e+00 5.1923395512e-01 1.7057315014e-01 3.1088834512e-01
521 -7.4428969286e-01 -1.2043349012e-01 -8.0693257167e-01 1.0410785198e-01 -5.6010984990e-01 8.7401123369e-02
522 -4.7916673595e-02 -7.5750202518e-01 3.0355119728e+00 -1.5020454396e-02 -4.8815541343e-02 -2.4604934513e-02
523 5.8292705117e-01 -5.4546032978e-01 -3.1636940462e-01 -7.6234645856e-02 1.0499515335e-01 3.0730230710e-01
524 -9.7879183173e-01 1.1563046383e-01 -4.8468816025e-01 2.2329412482e-01 -5.0419467187e-01 4.9007369231e-01
525 4.5372837194e-01 -1.1931464143e+00 -6.3968825732e-02 5.2935376821e-01 6.7690604883e-02 9.9906133220e-01
526 7.2748935403e-01 1.7118012485e+00 -4.1994956919e-01 5.4794104346e-01 -3.4581250562e-01 -4.5301333995e-02
527 1.2336013052e+00 6.6194369491e-01 1.0174966411e+00 2.2483606995e-01 -2.7277294558e-01 -4.1782263063e-01
528 -6.7743677827e-01 1.8526806146e+00 -5.9685506380e-01 -3.2081460874e-01 5.5374888011e-01 1.1539398736e-01
529 1.2050357337e-02 3.5592780028e+00 5.4082265038e-01 5.4709469020e-01 1.0273494727e+00 3.8418779827e-01
530 1.2192039722e-02 -7.6259285398e-02 7.0168488119e-02 -3.5263333065e-01 -6.0615955396e-02 -9.1022528729e-01
531 -8.6408849426e-01 -7.9457625719e-02 7.1266382344e-01 -1.5412999104e-01 3.4538372961e-01 1.0718681692e+00
532 8.1897726932e-01 -3.6655518553e-01 -3.3853264104e-01 -1.8528415963e-01 3.3360334128e-01 -5.1377901406e-01
533 2.9756676709e+00 3.7326937646e-01 6.0253011585e-01 -1.7054082692e+00 5.5726167033e-01 -1.2642167533e+00
534 1.0297233142e+00 2.3908612730e-01 8.3386091571e-01 1.0069589981e-01 -1.0174014440e-02 9.3644938947e-01
535 -3.1888292190e-01 9.3321424104e-01 2.0723043416e+00 2.9833647898e-01 -5.6493428714e-01 2.0849054861e-01
536 -1.1441752508e+00 3.7394864557e-01 9.3417031653e-01 5.8148934851e-01 1.1091046612e+00 -4.8073151859e-01
537 1.4528295587e-01 7.9097327302e-01 -1.4621436484e+00 -4.0843839759e-01 1.6577199399e-01 -3.2154106838e-01
538 2.0951939801e-01 1.1089698895e+00 -5.1027141665e-01 -4.0150854386e-01 2.7399444086e-01 8.1812542076e-02
539 -3.2499315810e-01 5.0609377440e-01 -1.8676903162e+00 8.9937016857e-02 9.4743294926e-01 -3.8229192489e-01
540 -4.9915044683e-01 3.9570696305e-01 -2.0725748018e-01 5.2228439224e-01 4.1732932661e-01 4.1527622302e-01
541 -1.5581356683e+00 -1.0493775861e+00 5.0125177733e-01 1.6089367989e-01 -6.1926774842e-02 4.5087299747e-01
542 -8.6939532666e-01 -9.3460063633e-01 -2.9145999334e-01 -3.2237873488e-01 -2.9193679514e-01 -4.0555346529e-01
543 4.3779653608e-01 -4.3129983656e-01 3.7407339669e-01 -7.6377723990e-03 -2.1798111322e-01 -6.0118306031e-01
544 -2.5296354892e-01 -5.7747457846e-01 4.6628853040e-01 -3.6663002590e-02 -3.2883877217e-01 -2.0037423581e-01
545 -3.5007711122e-01 5.7094484057e-01 3.1025016353e-01 -4.0614732009e-02 7.5383039781e-01 -9.0536776081e-02
546 -9.9847140679e-01 -5.6003874677e-01 5.9764222537e-01 -3.5516001411e-01 1.1684646507e+00 -5.3651303277e-01
547 1.8819610035e-01 1.5712369628e+00 8.7563610163e-01 -3.4992421064e-01 -3.3177412229e-02 -1.3611030342e+00
548 2.7467489922e-01 -4.7926626427e-02 8.5132419300e-01 6.9281881539e-01 -1.3144844465e-01 -3.4855492161e-01
549 1.2877170905e-01 1.9398541802e+00 -3.1670747755e-01 6.7328055132e-02 -1.5231694569e-02 1.7474966362e-01
550 1.2879020166e+00 4.4770609436e-02 4.3841484913e-01 6.2807778813e-02 -5.9446682012e-02 -1.1238594648e+00
551 9.7583291497e-01 4.6215497412e-01 -1.4358670573e-01 4.4030606859e-02 -2.3157643316e-01 -4.8775123326e-02
552 -1.4229321596e+00 -3.3715907913e-01 1.2201108144e+00 1.5930245511e-01 -1.3610310184e-01 -4.5516565532e-01
553 -8.9912891456e-02 7.4104587212e-02 -1.7624593742e+00 5.0081881948e-01 -3.1795164311e-01 -2.7436346260e-01
554 -7.9418233343e-01 6.5165677181e-01 1.5770311608e+00 -9.7890038300e-01 -9.0997016844e-01 1.8575594156e-01
555 8.9649710142e-01 7.6771831017e-01 1.4581752319e+00 2.2452262927e-01 4.2391494838e-01 -2.3283591862e-01
556 -5.8795716662e-01 -1.5076141102e+00 7.8086700995e-01 1.9232681182e-01 -1.3583162412e-01 1.9193253516e-01
557 -5.7204048788e-01 1.5196157972e-01 1.6121297219e-01 6.6730817962e-01 1.6793855245e-02 -1.1902594129e+00
558 -8.1067329766e-01 1.1770064124e+00 -2.2635819616e-01 3.9402912604e-01 -2.6368645896e-01 -4.6753167184e-01
559 -1.4460296640e+00 6.5237559522e-01 -1.5196959123e-01 8.8023742652e-01 -2.8666114268e-01 3.3024297867e-01
560 -3.8646084786e-01 -4.0619036179e-01 -3.7512465664e-01 8.6320427538e-01 9.6012069143e-01 -3.0608965296e-01
561 -1.1819849558e+00 6.5841460969e-01 -1.2984409063e-01 -7.1649411707e-01 1.2601303247e-01 -1.6746181442e-01
562 1.3809495816e+00 2.0138259281e-03 1.2889717495e-01 -8.4301698777e-02 -3.6189571310e-01 -1.0310781631e-01
563 -8.2239447423e-01 7.5553182546e-01 -8.0406660025e-01 1.5750947396e-01 -6.5024851579e-01 -2.9728650043e-02
564 9.8316032898e-01 -1.5266636916e-01 -2.2594058156e-01 -7.9256223851e-01 -1.4704339941e-01 -6.1390829154e-01
565 -7.0240140628e-02 -2.2996598306e-01 1.0490751941e-01 2.3508801641e-01 -7.4440572041e-01 -2.3030292750e-01
566 -6.4889612183e-01 2.2973023659e+00 -8.5234522973e-01 -7.1551122336e-02 1.3054627131e-01 -3.2686399877e-01
567 -2.8164604785e-01 8.2851266232e-01 -9.6122361188e-01 -3.1046158791e-01 5.4035613096e-01 1.4925592865e-01
568 1.2694925299e+00 6.3687249637e-01 8.1010705185e-01 -4.8329061815e-01 4.5594999647e-01 -6.8443974382e-01
569 -1.6764608716e-01 -6.2511538069e-01 -2.4817456625e-01 -3.9359908270e-01 -3.9908991416e-01 -4.0093633144e-01
570 5.2671565438e-01 -1.3164608380e+00 -9.8724544880e-01 -3.1151530899e-01 -9.9121382777e-01 8.7081773637e-01
571 -4.2558670719e-01 -5.9173629407e-02 1.1874338067e+00 5.1473236933e-02 3.2998368926e-01 3.2629637284e-01
572 2.0403193861e+00 5.5470067510e-01 -1.1258325668e+00 -6.8828470349e-02 -2.2465399781e-01 4.1339230731e-01
573 -9.1664209351e-01 -1.2034338422e+00 -1.3758885460e+00 -1.6690936147e-01 1.0409593389e+00 -6.6915099412e-01
574 -8.9801540004e-01 9.0712071033e-01 -5.5410231556e-01 4.3912612897e-01 9.3175652794e-02 2.2261421477e-01
575 -5.5979080224e-01 -1.5360047576e+00 3.1347314818e-01 4.1967842633e-01 -8.7645297781e-01 2.4166541303e-01
576 1.0024974125e+00 2.7865486504e-01 1.2126438598e+00 2.0326744294e-01 2.8641516320e-01 1.9479989950e-01
577 -8.6822949485e-01 -2.3868194713e-01 -1.4256617509e-01 6.1598295047e-01 4.4014085430e-02 -1.4764170007e-01
578 -1.1118767883e+00 1.5993120023e+00 1.0176760391e+00 -3.8797181378e-01 -3.3429308135e-02 2.5600060988e-01
579 2.2504873199e-01 -2.3802481249e-01 -5.2122820018e-01 1.0670840362e-01 2.3058285481e-01 -2.1043095056e-01
580 -2.2651830293e-01 -1.2474854982e+00 -1.1171584277e+00 -3.2073538501e-01 -9.7650381328e-03 -4.9314292355e-01
581 2.4721656705e-01 3.1290329812e-01 5.1404271426e-01 -5.6447047761e-01 1.6999581499e-01 -1.3856326234e-01
582 -1.8323340171e-01 -7.3103054633e-01 -9.3764376792e-02 -3.9557189131e-03 -1.1200482342e-01 5.8190701853e-01
583 6.5774482616e-01 1.8953259327e-02 3.8707400824e-02 6.4952698530e-01 -3.3294862282e-01 -1.0155783506e+00
584 -8.9409927326e-01 -4.2620687704e-02 -6.8673050160e-01 -2.3436842805e-01 -2.2950437676e-02 -1.0659271857e-01
585 -3.0002573637e-01 -8.5823258066e-01 3.4523076685e-01 8.4538874958e-01 2.2271186232e-01 1.4094788619e-01
586 1.3236494103e+00 8.6525856110e-01 -1.6998409734e+00 -3.6612614819e-01 -3.3864838781e-01 -9.3109571993e-02
587 -1.3306834940e+00 -3.3559198906e-01 -3.6808886784e-01 2.4095671394e-01 5.6069875199e-02 2.7643965490e-01
588 -4.1781332244e-01 -7.7244809418e-01 -6.0035145576e-01 -5.4525990025e-01 -2.6803292357e-01 6.3502233677e-01
589 -1.2872541101e+00 1.6665539795e+00 -8.9506144386e-01 -2.0698373346e-01 -4.7058647480e-01 -3.7399194573e-01
590 -2.2012802547e-01 4.7687766198e-01 1.2966843015e+00 9.9488114544e-02 -1.5312373712e-01 1.8708257389e-01
591 5.5534073743e-01 1.2903777236e-01 1.5699465551e-01 -3.4182929212e-02 -9.1476077294e-02 2.7811297345e-02
592 5.0961868833e-02 -1.2236681933e+00 -3.2817349836e-01 3.8122049087e-01 -6.1214874176e-01 -2.8021365328e-01
593 1.5853240954e-01 -5.7588699234e-01 -2.1501317521e+00 4.3198368921e-01 8.8314418757e-02 7.9417546456e-01
594 7.3905911615e-01 -1.8759661737e+00 1.1857586779e+00 -8.0111261638e-01 -3.3092146811e-02 4.0681890914e-01
595 -1.3389173707e-01 -9.6268638232e-02 2.3585487649e+00 -4.9379716851e-01 -2.4987015943e-01 4.1594185230e-01
596 -1.2654973417e-01 -2.0925249896e+00 1.2324882890e+00 -4.7609806904e-01 4.2153240537e-02 3.9940804907e-01
597 1.3685606050e-01 -5.2146749352e-01 1.4175317829e-01 -6.6520619788e-02 5.2125775139e-01 2.4728956393e-01
598 1.0714979963e-01 7.0710408109e-01 -1.7632680280e+00 2.3355309565e-01 5.3753595782e-01 1.8509150327e-01
599 -1.5293958467e+00 1.3304570550e+00 -1.1629139918e+00 -6.0998165634e-01 5.1851409307e-01 3.2127149755e-01
600 -8.2156989930e-01 -5.4081520334e-01 1.2593260083e+00 -2.8000050707e-01 -4.3217329605e-01 9.0218562217e-02
601 1.7332088692e-01 -1.4244095878e+00 9.6004372934e-01 6.2712244738e-01 -5.1994582967e-02 4.6659399630e-01
602 -5.3692329947e-01 1.0552517342e+00 5.8101107231e-01 1.5734504833e-01 6.8150268833e-01 4.4775626504e-01
603 -4.8933536648e-01 1.8652901130e-01 8.8228445429e-02 4.1303911569e-01 -1.7013579851e-02 -2.2066087448e-01
604 1.5667494806e+00 -5.8449430674e-01 -7.3806424341e-01 5.0689729370e-01 -5.8205218189e-01 -1.0310604399e-01
605 -1.4739056228e-01 9.8116020674e-01 2.2692143339e-01 -5.3121512978e-01 2.0363235179e-01 -4.2019301252e-01
606 1.1354552213e-01 4.9034804721e-02 -4.9568390878e-01 -1.7322887948e-01 2.2369385897e-01 3.2180202862e-01
607 -5.4517575060e-01 3.8746096910e-01 -9.4375427151e-01 1.0230602167e+00 -1.0577025892e+00 1.3174997934e+00
608 -2.6528921489e-01 1.6285235297e+00 -1.7305466948e+00 -1.5525411733e-01 1.4667464010e+00 6.4380450117e-01
609 -2.0986504475e+00 -7.6211466510e-01 3.2100318483e-01 -2.8805007963e-01 -1.2223689349e+00 -3.6980084366e-01
610 -6.1146473325e-01 1.0610317288e+00 -1.6423202224e-01 -6.0646880392e-01 5.7456091748e-02 -3.7501873741e-02
611 1.7722764203e+00 5.9772252351e-01 6.8712579569e-01 -6.2973823857e-02 -2.9040332895e-02 -1.7052764757e-01
612 -3.6947202665e-02 7.8787626067e-01 1.1746843626e+00 -2.8748521687e-01 1.3415496655e-01 -7.2250396820e-02
613 -1.1252423307e+00 -8.5912124939e-01 4.9525070319e-02 -3.9124415429e-01 7.3152862472e-02 -3.8442993602e-02
614 -2.0924034846e+00 4.5067446980e-01 -8.3023989233e-01 6.2160984229e-01 8.8117996795e-02 -9.0370008278e-01
615 -1.0313067619e+00 2.5611898950e+00 -1.3512144020e+00 -1.7103137310e-01 1.2019267162e-01 2.3441920724e-01
616 1.4773294390e+00 1.2681118777e-01 -2.7328810792e-01 -1.6801143027e-01 -1.9293779358e-01 1.0119930374e+00
617 5.3336670580e-01 -3.5256362505e-01 -1.7016154111e-02 1.2887219453e-01 -1.9327830852e-01 5.0104248704e-01
618 -3.1818958984e-01 1.1813723504e+00 1.3307182267e+00 -4.1141666088e-01 -4.8911174510e-01 -3.9574838462e-01
619 1.8361282177e-01 -7.4995888572e-01 -2.5365979842e+00 -1.4081411394e-01 -4.8252485125e-01 -8.0338390053e-01
620 -1.0551318395e+00 1.7597139907e+00 -2.4001678494e-01 1.9692349419e-01 -6.9681467381e-02 -5.2147797687e-01
621 -7.0374208511e-02 2.6975204293e-01 -2.8225029094e-01 2.2793499633e-01 -5.6921747989e-02 -2.5717390249e-03
622 -5.0320169370e-01 4.1586170434e-01 -2.7212564992e-01 -2.0785989613e-01 -6.4779867186e-01 6.1490561902e-01
623 2.1203448405e-02 2.2686273255e-01 3.0893106948e-01 1.6351633821e-01 1.9789130381e-02 7.1946263282e-02
624 2.4987968875e-01 -1.0178496951e+00 2.1394715769e-01 2.4214806737e-01 6.7566298938e-02 -7.6019201084e-02
625 -8.1519314367e-01 -3.6456381925e-01 -1.9428522826e+00 2.0361892105e-02 -2.1295465202e-01 3.2300563305e-01
626 1.2044500301e-01 -2.2984063983e-01 -5.9774779464e-01 3.3005335960e-01 -2.9861849282e-01 2.3459127271e-01
627 1.1675528743e+00 -3.2589392992e-01 3.7630204253e-01 6.4571364430e-01 1.6977555552e-01 -6.5428628829e-01
628 1.9638178071e+00 4.6958018559e-01 -3.9811350232e-01 4.9520151483e-01 -7.3183164941e-01 3.1356424360e-03
629 -1.4578004502e+00 -1.7381630835e-02 3.7366831537e-02 -3.6601281091e-02 7.4099614392e-01 5.1095565052e-01
630 5.3843204469e-01 -1.8954042156e+00 1.4375497607e+00 4.3581913403e-02 3.0522635727e-01 -7.4703266013e-02
631 6.7131195409e-01 6.9059583147e-01 -1.1976311427e+00 -1.7889266840e-01 4.4866080848e-02 9.7970665722e-02
632 1.2817119953e-01 -3.7250215263e-01 -8.9708834359e-01 -1.9419562113e-02 -6.4759099025e-02 2.4400607025e-02
633 -4.2092318660e-01 7.8861252241e-01 -1.2297904667e+00 1.2695087124e+00 -2.3190848551e-01 9.9858706993e-01
634 1.2732780870e+00 1.7595482667e-01 1.2510262963e+00 -7.4772640821e-01 -9.5370956607e-01 1.4522913301e-01
635 -1.3256609330e-01 -1.2922975172e+00 -5.6606981003e-01 -8.4053613367e-02 7.2101434190e-01 -3.7297341877e-01
636 1.5730169520e+00 -1.0012345897e+00 9.2377652862e-01 5.5717312765e-01 -1.0038820265e-01 -4.3661327897e-01
637 8.6754059097e-01 6.9935847756e-01 -1.2771644074e+00 -5.0966008349e-01 1.6601427453e-01 1.1147070040e-01
638 1.1168773919e-01 -6.0988995393e-01 -1.1330153371e+00 3.4238923661e-01 -6.8866320781e-01 -1.1849536938e-01
639 1.0871038358e+00 4.4097404771e-01 5.0872519107e-01 -1.1320483461e+00 5.4162101296e-01 -3.8743562123e-02
640 6.3564012427e-01 7.1381795211e-01 -5.4139517915e-01 1.7006006297e-01 4.4172081492e-01 -2.5308189880e-02
641 -2.1967673523e+00 -1.0060942851e+00 -1.0143002359e+00 3.5034951007e-01 -2.9847685615e-01 3.9367013588e-01
642 -5.9623226057e-01 -2.0153572735e+00 -9.6935340272e-01 -9.9496286406e-02 -2.8737296968e-01 6.3412984094e-01
643 -5.4820763059e-01 1.3613337304e-02 2.2632689121e-01 7.3991047199e-03 -3.7351028266e-01 6.4304600322e-01
644 -6.8556341317e-01 3.6384152829e-01 1.5826213229e+00 3.3276539127e-01 2.9719760389e-01 5.2103344189e-03
645 -3.9283325157e-01 1.1041160375e+00 7.9702704776e-01 4.6912905175e-02 -1.0766408931e-01 6.2836439584e-01
646 2.1264770269e+00 -5.6051539660e-01 -1.3850074058e+00 -1.3814418586e-01 -4.5634938766e-01 1.5853282855e-01
647 9.4268863537e-01 4.1394493166e-01 -1.6504355612e-02 -3.6317353570e-02 3.7936663702e-01 -1.3071114202e+00
648 -1.1024382934e-01 1.4375545793e+00 -1.6635873283e+00 -5.3439188883e-01 5.8513388097e-01 6.8963595096e-01
649 -2.3799747243e+00 5.2740038500e-02 5.8664776415e-02 3.9508502758e-01 -5.3568518471e-01 -9.4565119771e-02
650 -1.7935746722e+00 -2.0453563672e-02 -1.3884895953e-01 -8.0123557868e-01 -3.6268718937e-01 3.4116986034e-01
651 -4.8128941501e-01 1.4425401411e-01 1.8200180720e+00 -4.0233539096e-01 5.3507148408e-01 -3.0192627765e-01
652 -1.3421448247e+00 6.7122191955e-01 8.0526129534e-01 -2.9271433815e-01 6.2316170212e-01 2.3709491381e-01
653 7.4416381567e-01 -4.5056394642e-02 -1.9074301246e+00 -2.9631658153e-01 5.5274459526e-02 -3.7444344066e-01
654 -2.2299013335e-01 -1.1048362226e-01 2.1466301316e+00 1.9012349610e-01 -5.5521284904e-01 -1.7719803282e-01
655 -3.4829074470e-03 6.4678727404e-01 3.0463555085e-01 -6.1271985672e-01 -3.1596386303e-01 -5.0390360498e-01
656 -4.3885431483e-01 -2.0140467859e+00 -5.6795401537e-01 -6.9631417612e-01 -5.3275663085e-01 -1.2465333401e-01
657 -7.7046182385e-02 -2.3997730015e-01 7.4900745593e-01 4.0829232216e-01 6.6073378837e-02 4.8122200022e-01
658 1.4122442016e-01 -6.6817282282e-01 -1.1520313561e+00 -3.0365962706e-01 4.1852727096e-01 7.5530134284e-01
659 -1.7017545655e+00 -1.1848856981e+00 1.3029121542e+00 2.3097928425e-01 1.9302439936e-01 -6.6151257934e-02
660 4.5942183165e-01 1.2369783018e+00 -6.7628712695e-01 3.7941386627e-01 -1.1688840576e+00 -7.5430679047e-01
661 -1.5237128096e+00 1.2969072261e-01 9.1164179793e-02 -2.8829188469e-01 9.8442002869e-01 3.1559317008e-01
662 -7.8309690049e-02 1.8118999953e+00 4.7854957504e-01 -3.1851520834e-01 4.4043880228e-01 -3.9283756396e-01
663 -7.6987724573e-01 3.7682333618e-01 -1.5491467683e+00 3.7976885997e-01 9.3506133889e-03 2.2840643986e-01
664 3.9635115261e-01 -1.2931288226e+00 8.7098602648e-01 2.3426909395e-01 1.8800273507e-02 -4.0693634986e-01
665 -4.6985864935e-01 2.8733988764e-01 1.1755313556e+00 -9.9815334443e-01 -9.5018925180e-01 3.3692062324e-01
666 -1.3958198909e+00 1.1164091588e+00 -1.0535480487e+00 -5.5675301074e-01 -5.7183409292e-02 -2.1562823298e-01
667 -7.6762150396e-01 -1.7418402209e+00 -7.9357958402e-01 -2.4146896177e-01 3.5543122409e-01 -3.0275994939e-01
668 2.6419608906e-01 5.8111012057e-01 1.7552406228e-01 -2.8114840141e-01 -6.3165054143e-01 -3.0356635247e-01
669 1.0612229899e+00 1.8133013495e+00 9.5769103759e-01 -6.8590344821e-01 5.8298471581e-01 5.7342955735e-01
670 7.0660305929e-01 -6.4750109855e-01 4.6176872400e-01 -8.4719795016e-02 -1.5756590867e-01 -3.1122257031e-01
671 4.9782150837e-01 -4.8252095545e-03 1.8539632279e-01 6.3359356326e-01 3.9394939803e-01 -2.5816954401e-01
672 -1.4346458931e+00 -1.5614784165e+00 2.1006573532e+00 -2.7914898529e-01 -2.1673067102e-01 1.8445655260e-01
673 2.2271108512e-01 7.3245667710e-01 6.7267107206e-01 -3.5139873947e-02 1.1360307172e-01 1.3018724638e-01
674 6.5642725947e-01 -3.4273330514e-01 -3.1903714447e-01 5.0061859724e-01 2.8746641184e-01 -5.7541010359e-01
675 -1.7538189576e+00 -2.6665492009e-01 6.6125450794e-01 6.5705803695e-02 -2.8704675179e-01 1.0359868987e+00
676 -2.4769672633e+00 1.3541569772e-01 6.5715765213e-01 -2.2750507058e-01 -5.2716946993e-01 4.4818755009e-01
677 4.8278015043e-01 6.8049088149e-01 -6.4107157523e-01 -3.3149304388e-01 -6.7875725167e-01 1.3254095144e-01
678 -1.4299135535e+00 -3.7478606409e-01 -1.9613650804e+00 -2.8646003931e-01 4.2947870558e-01 9.1363120542e-02
679 7.8579533692e-01 -9.5016586525e-01 8.0437483518e-01 -7.5480037057e-01 -5.1484728212e-01 1.0568417476e+00
680 -1.2509219267e+00 3.2513412147e-02 -5.5503985091e-01 -3.4599313707e-01 5.2964142584e-01 1.0664156781e-01
681 -1.9494747586e-01 3.7623415983e-01 -1.3433746826e+00 -1.4245477810e+00 -1.1665011185e+00 8.4584696093e-02
682 -3.6944227196e-01 2.2671748481e-01 7.2634068218e-02 4.9925382978e-01 5.9814087959e-01 -1.6899449518e-02
683 1.5823999318e-01 -4.5444640421e-01 -3.5925235227e-01 5.5502770726e-01 1.9644946616e-01 -2.6912097150e-01
684 -9.4051478437e-01 2.6071861143e-01 -1.4164666681e+00 5.7250744836e-01 -4.0327325403e-01 3.2428194197e-01
685 -1.0878559797e+00 1.0040655422e+00 -4.2964488522e-01 6.4312816342e-01 -7.7629871394e-01 -4.7289139549e-01
686 2.0955364968e+00 -1.9230658542e-01 5.1044423925e-01 2.3821968184e-01 -2.0395763257e-01 2.4790540859e-01
687 1.5404089046e-01 4.6529460983e-01 5.2605945485e-01 6.0494878480e-01 4.1926786836e-01 2.2120229385e-01
688 9.2031008394e-01 8.1829120882e-01 -8.8089586944e-01 -6.2205990194e-01 9.4776188983e-01 -8.7993300608e-01
689 4.9893157517e-01 6.2661103882e-01 5.9098376114e-01 1.9435818164e-01 -4.0385723944e-01 -1.0514473038e-01
690 -7.2185902957e-01 1.9937261158e+00 -4.4681235327e-01 -9.5834640376e-01 -7.0998540364e-01 2.5959015528e-01
691 1.2726491269e+00 -1.6571160954e+00 6.1407401884e-01 -2.9329413551e-01 -2.6731592704e-01 -1.4797935140e-03
692 1.4469713218e+00 3.8692174756e-01 4.1975602735e-01 5.1859206662e-01 2.0057172985e-01 3.8942778979e-01
693 -8.2372280173e-02 -1.7837983754e-01 -1.2747954171e+00 3.2230866678e-02 2.7759804319e-01 6.0564061024e-01
694 1.5604139527e+00 1.8427242883e+00 -2.5932611024e-01 2.7877809313e-01 -1.5638571212e-01 1.3466989550e-01
695 1.0874177822e+00 -3.9239710982e-01 -8.2173888876e-02 1.0662416186e+00 -4.4204848441e-01 3.5128602434e-01
696 -7.5151477136e-01 -6.8489143976e-02 1.2752737135e+00 3.7172262830e-01 -1.3367711516e-01 -1.2429821151e-01
697 -1.5411351927e+00 1.4739760253e+00 1.3462775911e-01 2.6521299851e-01 -2.9701622786e-01 7.1933883070e-01
698 -1.1715665084e-01 -9.9126723905e-01 1.6959822603e+00 4.9796357191e-01 -4.8068469002e-01 4.7222083815e-01
699 4.2503949036e-01 3.5106995433e-01 5.7269458916e-02 -8.0234216375e-01 8.3356188716e-01 6.3887436170e-02
700 -1.3762539922e+00 -1.6512688155e+00 -9.0769280546e-01 2.1373231453e-01 -5.7276236885e-01 -1.2160728916e-01
701 -1.4135390999e+00 -1.6210310187e-01 9.2134295328e-01 1.0305980053e-01 -2.3667665591e-01 8.4420521398e-02
702 2.4786305122e-01 1.3524750612e+00 6.6661648361e-02 -9.4288015639e-01 -4.1961981615e-02 6.1786816606e-01
703 -6.7621955461e-01 -1.1710606692e+00 3.8718289849e-01 2.9865739417e-01 -5.3130438271e-01 -2.0340274377e-01
704 1.6732614034e+00 8.7831509929e-01 2.2641119183e+00 -2.5195387162e-01 1.0572429999e+00 6.2983376559e-01
705 3.8961104641e-01 1.8407173893e+00 3.9404506518e-01 -7.5872790900e-01 -4.8289822654e-01 4.6370608207e-01
706 3.2721376892e-01 -1.3255713562e-01 1.0477355390e+00 -4.2957210702e-01 9.0507106694e-02 -1.5509698175e-01
707 -5.9441940138e-01 -5.6207182838e-01 1.0110227054e+00 -1.4714869065e-02 -1.9790586489e-01 5.6259312785e-02
708 -3.5686736666e-01 -1.0976900557e+00 3.9748682084e-01 -1.3310402567e-01 2.0967313008e-01 2.6618220149e-01
709 1.7683865926e+00 5.8614607360e-01 -5.3583813582e-01 -2.3789529481e-01 4.1755904904e-02 1.9707346502e-01
710 2.8456886741e-01 7.1869377433e-01 -9.0213582709e-01 2.1734530124e-01 4.1002884919e-01 -9.1873110566e-02
711 -5.8579864596e-01 -1.4241796459e+00 1.0094477875e+00 -3.2886743342e-02 -2.0479548429e-02 -1.9848264994e-02
712 1.4682992162e+00 -1.2632876685e-01 -1.5202839775e-02 -3.1127407154e-01 -2.1978212715e-01 6.1980813493e-01
713 -1.6181421902e+00 -1.0565538613e+00 -7.4609009740e-02 5.9465600609e-01 2.1387630742e-01 -2.6292306915e-01
714 3.1487630502e-01 -6.2437173180e-01 8.6260659232e-02 -1.2318898264e+00 5.8495694477e-01 6.2167480967e-02
715 6.9616889515e-01 -1.7073886290e+00 -3.0347019617e-02 -6.5670243988e-01 7.0529328352e-01 3.0729892196e-01
716 -1.3577911969e+00 -1.9870010146e+00 -5.5832355276e-01 4.8836809041e-01 3.0109849326e-01 2.7386123924e-02
717 -9.0532767754e-01 -2.4198782040e-01 -4.8882086459e-01 -6.3485405733e-01 4.0502443021e-01 -3.0241780457e-01
718 -3.6163540826e-01 -1.2079056202e+00 1.5964417937e+00 7.3526783407e-03 -7.1870432573e-02 5.7951459298e-02
719 -6.0040960598e-01 -8.4464091714e-01 -3.9544747923e-01 -4.0823991348e-01 1.9916767491e-01 4.5528040248e-02
720 4.0470823908e-02 -1.5022532875e+00 7.1790216591e-01 1.0258895576e-01 -3.3957432153e-01 -5.3728081471e-01
721 1.2174113103e-01 9.8046448957e-01 7.6486172384e-01 1.3582818593e-01 -1.5426907151e-01 3.3252606833e-01
722 -1.6339697104e+00 -4.9698410561e-01 -2.2135919106e+00 -3.6577594092e-01 -2.0067468978e-01 -3.6690673896e-01
723 -1.7611473781e-01 -7.9653355854e-01 1.5613551122e+00 8.2846853227e-01 -4.4789009967e-01 5.2969722226e-01
724 1.3801943445e-01 -1.1068750797e+00 6.0237499513e-01 -3.2934543690e-01 -1.1492614649e-01 -1.0256121233e-01
725 2.0975164525e-01 -7.6442724304e-01 7.8220473797e-01 4.9431824425e-01 -2.1703642862e-02 5.1366984448e-01
726 1.3913671371e-01 6.4899092251e-01 6.5029801001e-01 -9.0050519824e-02 -4.3626343372e-01 2.6417741544e-01
727 -7.1698511539e-01 1.8745535819e+00 -1.3184031663e+00 -9.1259996410e-01 3.0367586802e-01 -4.3137215404e-02
728 -8.6555344040e-01 7.2448803558e-01 5.1610193143e-01 -9.1086234486e-01 4.1815084181e-01 2.4628623792e-01
729 -1.1502219889e+00 7.5769113590e-01 3.8633377928e-01 9.1127404351e-02 5.3540406586e-01 5.6204474140e-01
730 -2.0777976160e+00 1.4879228304e+00 1.9302782741e-01 -3.3622318651e-01 1.9667851284e-01 2.9389208599e-01
731 -8.3997514568e-01 2.4787745502e-01 2.3312441914e-01 -1.4438810376e-01 1.4432045251e-01 -7.3864014181e-02
732 -7.6207820996e-01 2.4092755653e+00 -7.4537369628e-01 6.9589884958e-01 3.7596690689e-01 -9.5650148111e-02
733 -7.0261430582e-01 -3.8460622055e-01 -3.4615712144e-01 -8.2032551958e-01 -2.8730737028e-01 -2.9601090469e-01
734 3.4260618446e-01 1.7198186428e-01 -8.3757640227e-01 9.9650163380e-01 -1.8812514687e-01 -1.6745325028e-01
735 -3.4547933608e-01 1.4305563051e+00 -1.0855839370e+00 3.9697882103e-01 3.7441227177e-01 5.0271935455e-01
736 1.0887216287e+00 -9.3293704836e-02 6.0173907748e-01 -1.3423112638e-01 -7.4824052199e-02 1.1540318538e-01
737 7.4162528779e-01 2.1438874421e-01 -2.4984563296e-01 6.0079727159e-01 6.0259100222e-01 -8.8544709810e-01
738 1.0188961676e+00 -3.7469901501e-01 -1.7149550972e+00 3.9757087826e-01 -1.5239029314e-01 -2.3470023841e-01
739 -1.3786112048e+00 3.3749310104e-01 -9.8892744813e-01 -4.1568282762e-01 -3.0305098335e-01 2.2690579054e-02
740 -1.5815909104e+00 2.0400886120e+00 -1.3346782330e+00 -3.7684905301e-01 -1.6277332353e-01 -2.5395948081e-01
741 -1.1327542262e+00 -1.3055220868e-01 6.2239715778e-01 -5.4582558015e-01 -6.9049873185e-01 -3.8910628470e-02
742 -7.5682026631e-01 7.4391754542e-01 -1.0507781818e-01 2.3303535943e-01 3.1357462361e-01 5.2159268377e-01
743 1.6339610492e+00 1.0700358893e+00 8.2843287943e-01 1.2840647453e+00 4.8515785699e-02 9.9799569791e-02
744 -2.5953332741e-01 -2.5279940216e-02 -4.2819967211e-01 2.1393730505e-01 -8.2812878103e-02 1.9901312312e-01
745 6.3586929338e-01 -7.9295034041e-01 1.2233768466e+00 -3.3448526866e-01 -5.7389863558e-01 -1.2864266841e+00
746 1.1769398538e+00 3.4312837893e-01 -7.7125211247e-01 -3.8462031667e-01 4.4819665513e-01 -3.9699616397e-01
747 -1.3011573202e+00 -1.3643733009e-02 1.9699551379e-01 -6.7408396195e-01 6.3027758012e-01 2.8989521098e-01
748 5.5624116836e-01 1.5950084446e+00 -4.9285144479e-01 -3.2813213603e-01 -1.5101463861e-01 -2.0757074906e-01
749 -4.1166751504e-01 3.2621370776e-02 -5.0583112232e-01 3.5487168805e-01 -2.8431009354e-01 -1.5350387920e-01
750 6.5165548228e-01 -1.1755263215e+00 3.4978139435e-02 -2.2202044996e-01 -3.6377422103e-01 -1.3968544422e-01
751 -6.2756843317e-01 1.2920971685e+00 -2.0579506537e+00 8.2092124099e-01 6.5473253831e-01 1.1537683656e+00
752 -8.7791674540e-01 1.2334247889e+00 -1.0770899024e-01 -4.3075314848e-01 2.6847644933e-01 3.0120842746e-01
753 1.0952545516e-01 2.5092534277e+00 6.9997465039e-01 -1.1575180930e+00 -3.6374138453e-02 3.5048721123e-01
754 2.0293726280e-01 2.7229522422e-01 -1.2757865816e+00 -4.3509151373e-01 5.7474718204e-01 -9.1540741016e-01
755 -1.4185092862e+00 -1.2102213163e+00 1.8315790613e+00 -1.8638043656e-02 1.8164194641e-01 -3.7114410924e-02
756 2.4657647462e-01 -7.5605157942e-01 -1.5060535987e+00 2.9246271166e-01 -5.2602823471e-01 -3.2695416929e-02
757 7.0714485574e-01 -5.6484098995e-01 -7.1867053392e-01 1.9914931796e-01 -3.7126255174e-01 4.1592049813e-01
758 -4.9562584074e-02 -1.1578025902e+00 -2.2709270291e-01 2.0237866319e-01 -2.1307616486e-01 1.9785863297e-01
759 6.7805388998e-01 4.6317606782e-01 7.6688111012e-02 5.5545550356e-01 3.3635196470e-01 6.0531437141e-02
760 9.5373874078e-01 7.9457191691e-01 -7.8427205105e-01 -3.3526217606e-01 3.7593247409e-01 -5.2352713111e-01
761 -5.1658272252e-01 -7.9821270194e-01 -3.8452073182e-01 1.1284737429e-01 -1.5337080568e-01 4.6530695519e-01
762 1.1416723955e+00 -1.1041938641e-02 -1.2051142247e+00 1.4102786018e+00 2.2251926887e-01 -4.7043769488e-01
763 -9.2988805189e-01 -1.2661403792e+00 -5.7934521792e-01 -1.8890903551e-01 -4.5974384412e-01 6.0279086336e-01
764 3.4546411692e-01 -3.8539026573e-01 -8.2183224589e-01 2.6372919744e-01 1.4132857113e-01 -2.3484085156e-01
765 -4.7436615302e-01 9.6071481936e-01 -4.4644453663e-01 -6.7851702437e-01 4.8762339798e-01 -8.5347626620e-01
766 2.2934155749e-01 2.0718519557e-01 3.2273441242e-01 -8.0585615616e-02 -8.1394837740e-01 -7.8050646860e-01
767 -1.0767100554e-01 7.2406505998e-01 -2.2728847119e-01 -3.9386464352e-01 2.8416393977e-01 1.7425073227e-01
768 -7.8375148109e-01 2.8886106296e-01 -9.9840854653e-01 2.9132008935e-01 3.9262942257e-02 3.4699850169e-01
769 -1.4993420269e+00 1.1338979261e+00 -1.8945932367e+00 7.2803655363e-01 2.9641483493e-01 -3.4792024044e-01
770 -3.8667037451e-01 1.4743898614e+00 1.9261626780e+00 -3.4864238851e-01 -2.9995180042e-01 4.1028337512e-01
771 3.5232734272e-01 -1.1814712825e+00 1.2843286120e+00 1.6606766943e-01 -2.2961512043e-01 5.1473360824e-01
772 -1.3037003291e-01 2.4046927298e+00 -1.7366931632e+00 -4.7535644839e-02 -3.9941735462e-01 -2.6142748998e-01
773 -2.7940953574e-02 1.6485012806e+00 -2.4718162836e+00 3.6785387759e-01 -2.5543668635e-01 4.6483907967e-01
774 9.0383290301e-02 -7.9830337723e-01 -1.5446686074e-01 -7.2991150938e-01 -3.4436900670e-01 -5.5603257740e-02
775 -9.0283987586e-01 -1.0503669997e+00 -7.0298799001e-01 4.9831255430e-01 4.4874333822e-02 4.9598568625e-02
776 -8.4383605077e-01 7.6004809624e-01 -3.9159817797e-01 1.3406392061e-01 3.2999330673e-01 8.6455690608e-01
777 -3.1330499859e-01 9.7976914236e-01 6.7431684242e-02 -2.0772282862e-01 1.0841786711e-01 -8.8102754521e-01
778 1.0740928714e+00 -5.8595680578e-01 -2.4428118305e-01 8.2798332805e-01 -1.8635311642e-01 -6.2747179057e-01
779 1.4206502859e+00 -8.3235535780e-01 -5.9009791902e-01 -8.8213964958e-01 -9.3122643385e-02 4.0304786357e-02
780 -2.7513522837e-01 7.5116980544e-01 1.1384577314e+00 1.1255234463e-01 1.8993501620e-02 4.7001249772e-01
781 8.6527673240e-01 1.3980471733e+00 -8.5990290916e-01 -7.5319961848e-01 8.6968571874e-02 -1.1921329132e+00
782 1.1625473469e-02 -1.3565776588e-01 -6.8997094932e-01 1.7096045622e-01 4.5514670697e-01 3.7138064540e-02
783 7.0914944955e-01 -4.7352814410e-01 9.2168551837e-02 -1.5900934353e-01 1.5771360120e-01 -4.1882037806e-01
784 1.2911536222e+00 9.3781207504e-01 8.6005311318e-01 -4.7751077246e-01 -3.9184882361e-01 -1.2023934175e-01
785 -5.9530033508e-01 3.6357445921e-01 2.8113966191e-02 3.0458698041e-01 -8.7277802650e-02 1.2615342872e+00
786 -1.0828688599e-01 5.5230779860e-01 9.3155514801e-02 -5.2934620022e-03 -5.0987805083e-01 1.8685315517e-01
787 1.1464529694e-01 -2.8401119956e-01 5.9541295801e-01 -3.9317138489e-01 -3.7292496727e-01 6.8627419146e-02
788 -9.9365787286e-01 -2.9038285750e-01 -1.3800143346e+00 -1.7938542423e-02 2.1391279043e-01 1.6386629180e-01
789 8.7260439867e-01 -1.6378957992e-01 8.9997137960e-01 8.6866651280e-02 2.6299139745e-01 -4.2756576928e-01
790 6.2569135311e-01 -2.9056785260e+00 -3.1207890245e-01 4.4048700287e-01 6.1654295196e-02 4.9825547407e-01
791 -3.5622740644e-01 -1.9004002340e-01 -3.8987897497e-01 1.5817464294e-01 9.3642024469e-01 -4.7338627468e-02
792 4.2659881496e-01 7.7825527582e-01 -1.8769615498e-02 4.9563879027e-02 1.0893778105e-01 -2.8276839589e-01
793 -3.2602846162e-01 6.9968933255e-01 -8.3624046018e-01 -2.8763171805e-01 1.2591491431e-01 -5.1264631718e-01
794 5.6339401434e-01 -1.0639957989e+00 2.3413539805e+00 -7.2909078167e-01 -5.4077962850e-01 -1.4031814761e-01
795 -1.6715788932e+00 9.8070689885e-01 1.9157939877e-01 2.0636210862e-01 2.5661112879e-01 -3.6402526801e-01
796 1.1449221054e-02 6.8738712058e-01 1.2516239642e+00 -6.4940555628e-01 -3.5942950323e-01 -3.8929284916e-01
797 -7.2529127175e-01 -1.1503647658e+00 -2.1379380211e+00 1.0114551307e-01 1.9363697139e-02 -6.7242541013e-02
798 1.0581738304e+00 8.8431567143e-01 2.4962715772e-01 -6.8765723717e-01 1.3193891580e-01 -2.0524966274e-01
799 -1.0362790347e-01 -7.0248861742e-01 1.8393749608e-01 6.4369630440e-01 8.3274414844e-02 7.1300843361e-01
800 -1.4554408579e-01 6.3912126413e-01 -2.0912405375e+00 -2.2012548254e-01 -4.7134110902e-01 1.0461080562e+00
801 -6.8977071211e-01 1.5564589479e+00 -4.1286169654e-01 -5.9420178694e-02 -4.9349775794e-01 8.5151406113e-01
802 -1.2864508826e+00 -2.7656498459e-01 1.1600654226e+00 1.5791408407e-01 -1.4726655593e-01 3.1393730963e-02
803 5.6658153761e-01 5.8587294640e-01 -9.2460286420e-01 4.1149546810e-02 9.3201768588e-01 3.1811049692e-01
804 -1.9391420574e-01 3.7601810523e-01 -3.8471324629e-02 2.7203621939e-01 -1.3943605347e-01 -5.0772665158e-01
805 -3.0676233820e-01 2.1120631209e-01 -7.4525370470e-01 -4.8277698760e-01 -5.5499039977e-01 2.9461193002e-01
806 -3.9847696235e-01 2.0148102341e-01 -4.9108667619e-01 2.2588383020e-01 -4.4934687985e-01 -9.0088281137e-01
807 3.5114298669e-01 -6.5693067478e-01 -1.3892193923e+00 -4.0417745709e-01 -7.2806634025e-01 -1.0401908551e-01
808 -2.5130780842e-01 -8.3751245031e-01 7.8370712896e-01 1.5430116294e-01 -4.6323765508e-01 -3.2018972208e-02
809 -2.5149294070e-01 -1.1586625960e+00 -1.3609965021e-01 -1.4488047605e-01 3.0922240693e-01 -3.5079271253e-02
810 -4.6717509399e-02 -4.4739884820e-01 -1.0851753588e+00 1.0638193757e-01 2.8161012166e-01 -3.6825922187e-01
811 -2.1689171245e+00 -8.7008050599e-02 5.0089569473e-01 4.0999287751e-01 -8.2572093085e-01 -3.4537136549e-01
812 2.7742435371e-01 2.8458582881e-01 5.7266734749e-01 5.0945701449e-01 3.5697068026e-01 -1.8808020031e-01
813 6.3838752130e-01 1.9531162522e-01 -3.9247520247e-01 -1.2513162730e-01 3.6930075384e-01 -2.1863619422e-01
814 5.9552489609e-04 4.4353885518e-01 4.9615626484e-01 -5.8756566679e-02 9.6739064916e-02 -2.8137468556e-01
815 -6.7544324366e-01 9.8676527956e-01 4.2565508106e-01 1.9998504803e-01 -1.4966461495e-01 3.3287210214e-01
816 -1.1709312685e+00 -1.3938913636e+00 -1.5931901051e-01 2.8438972746e-01 -4.3896299374e-01 9.0366580796e-02
817 -1.1487735654e+00 1.3597808757e+00 -1.2915804036e+00 4.4866378517e-01 -3.8475468903e-01 3.3865336763e-01
818 9.4793223957e-01 -2.6487590810e-01 -2.9930409626e-01 1.6298529627e-01 1.0517151435e+00 -7.9818635852e-01
819 -1.9134656311e+00 -4.6417333237e-01 3.5277405908e-01 -8.1270039202e-01 3.8112528826e-01 2.5866842633e-03
820 3.2450575493e-01 -2.6792191745e+00 6.6106842750e-01 1.1183851908e-01 8.8881386691e-01 4.9489750593e-01
821 -1.1438604517e+00 1.2092930626e+00 -4.4706055920e-01 2.7857639060e-01 -1.2221022806e+00 -7.5119493660e-01
822 -5.2945092742e-01 -1.1264996095e+00 -7.8535337913e-01 -2.5129566491e-01 -2.1629028793e-01 5.7441578772e-01
823 -2.5349425133e+00 -1.2508446376e+00 -5.6113458540e-01 1.4596784761e-01 -2.8711017419e-01 -1.5570917745e-01
824 -8.6499451413e-01 -6.8390531358e-01 1.1310186267e+00 -1.1307215610e-01 -4.2338792140e-02 -8.9850761335e-03
825 1.5209202906e+00 6.6771413674e-01 5.8272996320e-01 -9.6611555236e-01 5.9785186758e-01 7.4514612810e-01
826 2.7274491607e+00 8.8205669393e-01 -1.0891935439e+00 -5.5632305286e-02 5.3426536194e-01 2.7378348196e-01
827 -4.5870622909e-02 -1.4610045971e+00 1.3818765477e+00 -6.2915342562e-01 5.0824803286e-01 -5.4563227620e-01
828 1.9327665452e-01 -4.7201607108e-01 -1.6813094302e+00 -1.5786866686e-01 5.7628104781e-02 1.1565963158e-01
829 -7.7215575681e-01 5.0975480856e-01 1.7666910216e+00 1.8131209045e-01 -3.3244167285e-01 -4.0443064545e-02
830 3.2759883405e-01 -1.2779433386e+00 1.8370252013e+00 -1.0169470585e-01 -9.6973000726e-01 -2.9842896558e-01
831 3.1628717326e-01 -5.8694446363e-01 1.8061408895e+00 -4.9589687757e-01 9.2901672815e-02 4.2161921308e-01
832 -3.5726759657e-01 8.4575684369e-01 1.7069115038e+00 -3.3233971773e-01 -2.9121540940e-01 -3.9342353237e-01
833 1.2322662891e+00 3.0832999492e-01 1.2863929563e-01 -1.5362240893e-01 1.3388027112e-01 4.2848030707e-01
834 6.5602147358e-02 -1.6029567440e-01 -1.5463693009e+00 3.1726537146e-01 1.7886011926e-01 -2.0940595092e-01
835 1.6667611754e+00 -2.1719700081e+00 -1.9257291501e+00 -1.7666882128e-01 -3.2330859348e-01 1.4285105006e-01
836 -4.3619875866e-01 -9.7245697124e-02 -4.0656734809e-01 -1.8551220374e-03 1.7384825310e-01 2.4733066192e-02
837 -8.0162091211e-01 3.9658175776e-01 1.1111379122e-01 -7.6004691464e-03 5.0128553507e-01 -3.7780592704e-01
838 7.8719136082e-01 -6.2078137805e-01 6.8094984404e-01 2.2152309816e-01 -4.9037414620e-02 -1.6859845113e-01
839 -1.6079689597e+00 -2.5157440557e-01 -6.6779397441e-01 7.8276205989e-01 2.2503851124e-01 -5.1242026724e-01
840 1.0004890552e+00 2.5763317981e-01 6.6480846066e-02 -2.3131396357e-01 -5.5729193942e-02 5.0932550277e-02
841 2.5914171972e-01 1.4498294358e+00 1.7621770952e-02 7.5757043814e-02 -7.2170723584e-01 3.9886119923e-02
842 -6.7340959485e-02 -1.3906205495e+00 -1.3543367471e+00 8.2708152083e-02 -5.7223253069e-01 -1.1281310029e-01
843 -1.4963666987e-01 -4.0769165406e-01 4.2433435406e-01 -1.1372075614e-01 2.0538306956e-01 -3.0620073812e-02
844 -1.6798447176e-01 -6.1090189342e-01 3.2836803140e-01 2.9267949024e-01 6.9723813262e-03 1.1728901404e-01
845 -2.1084102169e+00 -1.4722264568e-01 -2.1736991799e+00 -4.5577237174e-01 1.8396056768e-01 2.6163293097e-01
846 -6.3142521152e-01 -6.5279926035e-01 -1.5653094849e+00 -5.6056740472e-01 -6.5529715050e-01 -2.7878176141e-01
847 1.7140538585e+00 -4.7008083903e-01 7.4958948456e-01 -4.2247803675e-01 4.0477824063e-01 -4.8392749752e-02
848 4.5027548492e-01 1.2612833946e+00 -2.9733339107e-01 2.1450502127e-01 -2.9972579959e-01 2.0037901056e-01
849 -2.2759142602e-01 8.2614780865e-01 8.0654214100e-01 -1.2124954715e-02 8.1360271135e-02 -5.5552626626e-02
850 1.3223875969e+00 3.6820453791e-01 1.9173329415e-01 -4.9386755693e-02 2.3197544118e-01 3.8249419112e-02
851 4.0221513084e-01 3.5822763876e-01 6.8123165295e-01 -4.5344213477e-01 -2.4775421211e-01 -2.8807446497e-01
852 -7.2770660726e-01 -4.2534040039e-01 -1.2299328819e+00 1.6019049786e-01 -6.5496296324e-01 4.8794865856e-01
853 3.1310160727e-02 -1.0030823407e+00 -2.6439667756e-01 -6.8488262541e-01 6.2108059635e-01 5.0917852019e-01
854 1.6499696540e-02 1.0024800333e+00 -9.3348572702e-01 -4.0816403095e-01 -9.3318459621e-01 -2.0940846411e-01
855 1.0922498492e+00 6.9754440392e-01 2.1957452487e-01 -4.1920929590e-01 4.5925457368e-02 -5.9813295253e-01
856 1.1797480650e+00 -1.9305945285e+00 -1.8579465793e+00 3.8040627648e-01 -9.7083941465e-01 1.9457985177e-01
857 -2.7271491011e+00 -4.5465004912e-01 -1.9520212383e+00 1.2334477686e-01 2.8615507441e-02 -6.4987734874e-01
858 1.3196162468e-01 -1.2613194617e+00 -4.7570174810e-02 -9.6389246162e-01 1.1064370662e-01 -1.3433774553e-01
859 -1.7738611830e+00 8.2712225640e-01 -2.0724898804e+00 2.0784159022e-01 1.2360518632e-01 5.1588593134e-01
860 -1.6445399916e+00 -1.0389240877e+00 1.5677241002e+00 -7.7594130689e-01 6.2671978036e-01 -3.9460061636e-01
861 -5.7412423130e-01 -4.0378659270e-01 1.1631950956e+00 -5.3350259935e-01 5.6149372890e-02 -7.1256505454e-01
862 -1.1625508112e+00 2.7035551121e+00 -1.6518311986e+00 4.4993513213e-01 -4.9390503222e-01 -4.1221014910e-01
863 1.4768503470e-01 -2.8061662750e-01 -9.5045259044e-01 4.3238455651e-01 9.8421899019e-01 2.3677891030e-01
864 8.1665323396e-01 -4.3675686633e-01 6.2054760241e-01 8.2431913879e-03 5.0922189095e-01 -1.4541751518e-01
865 -1.4119200440e-01 -5.0857976827e-01 -1.0440854969e+00 -5.7410355173e-01 1.4002178309e-01 4.9185745723e-01
866 8.9165977383e-01 -2.5876077040e-01 1.1598294057e+00 -2.0140966469e-01 4.5555780663e-01 2.9067817006e-01
867 1.8598139148e+00 -8.4146547501e-01 -1.3359909139e+00 9.7130714180e-02 -4.2580216754e-01 -4.0366071256e-01
868 -4.9322163091e-01 1.5109949416e+00 -1.4454433494e-01 1.9960912425e-01 -6.6388516897e-01 7.2311864836e-01
869 8.8550930448e-01 1.3996664795e-01 1.3446281012e+00 3.8617957919e-01 -9.9742370598e-02 1.8653510851e-01
870 1.5693651986e+00 -1.4722698688e+00 -1.5066578566e-01 -6.2312076991e-01 3.3832231027e-01 -2.8815026259e-01
871 1.3435432499e+00 -1.6809900768e+00 4.2288071623e-01 -6.6529342592e-01 3.5134500430e-01 5.5423024219e-02
872 5.8762400818e-01 -3.2927518977e-01 1.0456471232e-01 8.1631565170e-02 -2.5860648945e-01 3.6953105345e-01
873 -2.2634280052e-01 1.4751208627e-01 7.1190270412e-03 -2.3517428552e-01 -3.0490156384e-01 -1.6160263785e-01
874 8.0604653117e-01 -3.7369013402e-01 -4.7178370070e-01 -5.6855826321e-01 -3.8232964221e-01 -7.1565705519e-01
875 1.0097664302e+00 1.4112866278e+00 -1.5807585987e+00 -2.3226995149e-01 -3.6299793319e-01 2.9175961242e-01
876 5.5944354384e-02 2.1314664544e+00 1.3080067767e+00 3.2331489415e-01 -2.0237625779e-01 1.2243996969e-01
877 -6.2268597698e-03 1.0022036747e-01 -6.5001376677e-01 -3.7872982095e-01 -3.7013558512e-01 4.8421113166e-01
878 -1.4092432109e+00 -1.4196442191e+00 -1.1128330551e+00 -6.9074051704e-01 3.5968634645e-01 -2.0524517911e-01
879 4.0326264984e-01 -1.4354272606e+00 8.0099264830e-02 1.3453333770e-01 9.6386760035e-01 4.0212420836e-01
880 -7.0013603066e-01 3.1164905802e-01 -1.6631177960e+00 7.5083665769e-01 1.6438016418e-01 -9.1408235198e-01
881 -1.1895029051e+00 -6.2217060967e-01 3.5219997687e-01 -5.4349398469e-01 -7.7035984851e-01 1.4863416954e-01
882 -2.1219296212e-01 -3.5992597719e-01 -3.0778514363e+00 -9.0975434139e-02 -2.1625386403e-02 2.9771694254e-02
883 -1.6438648596e-01 1.2633481613e+00 1.4808381425e-01 1.5121524628e-01 5.0936754851e-01 -8.4065025787e-01
884 7.6934329937e-01 2.9825747090e-01 9.3888301323e-01 -1.3329700145e-01 2.6277504615e-03 -5.8509933569e-01
885 -1.0666165063e+00 5.5931445720e-01 -1.8417249101e-01 2.6206564419e-02 1.1228051703e-01 2.7341651518e-02
886 -3.9730138247e-01 -1.1432848863e+00 3.0137852724e-02 -2.9978126582e-01 5.3057010053e-01 -7.8374951524e-01
887 2.4296320729e+00 -1.0363074249e+00 -6.2543885130e-01 -9.9335361624e-02 7.0224359550e-01 4.3116817109e-01
888 -1.2849409910e+00 -8.8373007309e-01 7.5170718318e-01 -3.1655219164e-01 -2.8274312552e-01 4.5938391131e-01
889 2.0638363405e-01 6.0358313348e-01 -5.9644675613e-01 1.3956023568e-01 -3.4475802152e-01 -2.6346282620e-01
890 1.2964374724e+00 -3.3556015376e-01 -1.4908472841e+00 -2.0808058551e-01 -2.3348659864e-01 3.1353141653e-01
891 -5.3426527447e-03 -1.6235511780e+00 -4.3432777808e-02 6.0454292655e-01 -3.7027994172e-01 -7.2781373225e-02
892 -5.9245551109e-01 4.9187766897e-01 -3.2904177279e+00 -8.0899235459e-02 2.4180095700e-01 3.8639390221e-03
893 3.4756324906e-01 -4.0074725870e-01 2.4996556743e+00 4.4439761731e-01 1.0332953239e+00 -3.5093562248e-01
894 1.7075420456e-01 1.2186737944e+00 4.9109912805e-01 2.8567011882e-01 -1.0612561601e-01 4.3741860714e-01
895 8.9917742641e-01 1.3513329676e+00 2.5764543418e-01 4.8461871323e-01 -5.5014464385e-01 -2.9381815547e-01
896 -7.0665551859e-01 1.8021593561e+00 2.0122054971e+00 -5.1148862275e-01 -2.3338068296e-01 1.8212900831e-01
897 -5.6563451664e-01 6.0176302806e-01 1.0641680138e+00 8.2114760048e-03 5.7160146967e-02 2.8184096754e-01
898 -4.0424392276e-01 -9.3040816619e-01 6.1118017286e-01 3.1372268533e-02 3.1663422084e-01 -4.2939956811e-01
899 1.2767752161e+00 -3.2595905552e-01 -2.7007421980e-01 8.9446141489e-02 -8.9702892152e-02 -1.1589481480e+00
900 1.0706601510e+00 -2.5885886711e-01 1.6955541979e-01 5.5195343204e-02 -8.7993266616e-02 -1.9920858823e-01
901 1.8040753452e-02 -2.3181060126e-01 1.6265686330e+00 -3.6299525767e-01 -1.1612326126e+00 4.8578860925e-01
902 8.3534044501e-01 -3.9668136526e+00 -2.0178976652e+00 -5.3057327762e-01 2.1795943200e-01 5.4718101887e-02
903 -1.3855001270e-01 -1.8154407298e+00 4.8488073154e-01 7.0541261441e-02 5.8083518326e-01 -4.1976631011e-01
904 1.3608169013e+00 3.7599825646e-01 9.5340699410e-01 -7.7234281553e-01 -1.3785716457e+00 -9.9740906209e-01
905 1.6461442334e+00 2.9682609527e-01 5.7466904177e-01 -3.3225112583e-01 3.1312601234e-01 -4.1509301253e-01
906 -6.2135920511e-02 -2.9068262265e-01 2.9310661721e-01 -4.8395952130e-01 2.1961875189e-01 1.2645303019e-01
907 -5.0372432456e-01 1.1380285041e+00 1.5268856504e+00 -3.6379804209e-01 -4.2906333015e-01 1.5847563360e-01
908 3.3320461502e-01 9.4817273473e-02 5.3956045577e-01 4.8662607210e-03 1.8076232033e-02 -5.4209356247e-02
909 -3.9775288539e-01 -1.4104270904e-01 -4.8950069714e-01 -4.5874106663e-01 2.1870076840e-01 4.1890875232e-01
910 3.8606747651e-01 1.8066883635e-01 2.2160561306e+00 2.9414237440e-01 -8.7178823638e-01 -4.0302194078e-01
911 1.5438831056e+00 -1.0735624011e+00 -6.6977750733e-01 -2.1253974038e-01 3.1956721458e-01 -4.4042751963e-01
912 1.7388305700e+00 6.2161846818e-01 -9.5351232229e-01 -7.9579227606e-02 -6.3911926616e-01 6.3559958273e-01
913 -3.1723953172e-01 -1.5553002990e+00 9.1516305267e-01 5.8714769671e-01 2.7764273955e-01 5.5776311774e-01
914 -2.4363197082e-01 3.9020083465e-01 -4.4125634852e-01 -1.8550082833e-01 -1.3699421075e+00 5.0489134824e-01
915 -3.4402667573e-01 1.2583712429e-01 -1.1733083852e+00 -3.1067932570e-01 -2.6133390589e-01 -7.0500837068e-03
916 -2.1904047760e+00 5.9489896883e-01 1.9783042989e+00 -2.4676184283e-01 -4.0384536715e-02 1.0340284832e-01
917 -1.0652510984e+00 1.0600158084e+00 -4.9439645645e-02 1.0113593227e-01 3.7325219886e-01 -4.7218261941e-01
918 -1.4277735533e+00 -1.4653198575e+00 -1.5779259046e+00 1.8272005833e-01 -3.5730024221e-01 3.7597781573e-01
919 -3.5177466965e-01 1.4531439210e+00 -7.5813846114e-01 -5.1185546998e-01 2.8310123611e-01 -4.8284257434e-01
920 1.1731347390e+00 -2.3595960056e-01 4.1695110402e-01 -1.8714228697e-01 2.9158388857e-02 -4.6476134892e-03
921 -5.9785568634e-01 -5.0288861289e-01 -5.1795976773e-01 -6.7229437632e-01 5.2427421859e-01 5.2572445881e-01
922 -6.7340552370e-01 -1.6468024106e+00 -8.4542387773e-01 9.5638386229e-02 3.9328265514e-01 2.0561024728e-01
923 1.7073639347e+00 -4.7602757641e-01 -2.2104468441e+00 -3.4665726042e-02 1.3387538661e-01 2.7799958820e-01
924 1.0521157063e-01 7.4167743393e-01 6.6230694108e-01 3.4522109521e-01 4.0434435273e-01 6.5201017310e-02
925 -6.3212260965e-01 -8.7312399655e-02 1.0157743906e-01 -7.2392780087e-02 2.7626917696e-01 8.8056422785e-01
926 -1.3863128542e-01 8.7174844697e-02 6.4486917987e-01 -1.1774588356e-02 1.5353119942e-01 -3.2310585319e-01
927 5.0075130926e-01 -3.0498583154e-01 7.1018379648e-01 -6.9821181628e-02 -4.9166395337e-01 4.0198420112e-01
928 -1.7283273593e+00 3.8734319235e-01 -1.4330242464e-01 3.0074943772e-02 -1.1245977205e+00 4.8123708719e-01
929 -1.1631601099e+00 1.4891071685e+00 1.6365575385e+00 2.3321157165e-01 3.0858805896e-01 -3.3582810326e-02
930 6.3326567706e-01 2.7856629676e+00 -2.1104549785e+00 -2.3334520667e-01 -2.5535504682e-01 4.2072379482e-01
931 -8.3339811682e-01 7.1360260776e-01 2.5431714758e-03 -8.5370808545e-02 -4.0249827661e-01 -4.4220895503e-01
932 -5.4285494549e-01 -1.1621510883e+00 -3.9921926005e-01 -7.0430449622e-01 -1.6222044647e-02 2.9165248022e-01
933 1.7185071168e-01 -6.3760916336e-01 -1.8157087638e+00 1.0519427846e-01 -1.0240451575e-01 1.5721660824e-01
934 -9.1154387926e-01 -7.6520490571e-01 7.6961459450e-01 2.4285259337e-01 4.2424780095e-01 -7.6428497233e-01
935 -1.1010763373e+00 1.7623635637e+00 5.2242712939e-01 5.1507562665e-01 9.2590447679e-01 -2.1723154893e-01
936 1.0064191316e+00 -2.6497425351e-01 1.7556154310e+00 -4.2080087315e-01 -3.7271954126e-01 -5.1733048473e-01
937 -1.0278449558e+00 8.4698302843e-02 4.0692247178e-01 -1.3508985511e-01 8.8061105813e-01 -6.8583076538e-02
938 5.2271150746e-01 -7.2573521656e-01 9.5641143165e-01 -2.4000782009e-01 -2.1900775183e-01 9.3880040218e-02
939 -2.1638771903e-01 -4.7092133752e-01 8.6786127219e-01 -1.6126724473e-01 7.6515630331e-02 3.3317745906e-01
940 -1.2274719750e+00 3.6676297551e-01 9.0279051680e-01 6.1150858129e-01 9.6749980860e-01 -5.3223093852e-01
941 1.1488197639e+00 1.6894138783e-01 -1.7106899110e+00 -7.7967678518e-01 -1.2424488407e-01 6.7863340635e-01
942 -5.3072212405e-01 5.4720799331e-01 8.7618386496e-01 -2.3490199180e-01 1.1458043995e-01 -3.1075330724e-01
943 3.5713275717e-01 1.2848814875e+00 1.2918241173e+00 4.7736792638e-02 -8.6361429222e-02 -1.7449839106e-01
944 6.3921328185e-01 -1.9171012393e+00 5.8990246613e-01 -4.4499192871e-01 7.3841720396e-01 -5.8856688850e-01
945 -1.1975859820e+00 2.8100208300e-02 -1.3443718358e+00 4.0749464162e-01 6.5000124462e-01 9.1914208661e-01
946 -1.0531338612e+00 -5.5016592795e-01 -3.0639573406e-01 -1.0364072583e-01 3.7291584056e-01 4.5360622473e-01
947 -2.5327647670e-02 -1.0440771925e+00 4.3214564638e-01 1.8051852174e-01 -1.6744908422e-02 2.0839411484e-02
948 -7.1063939239e-01 -2.4175656704e-01 -2.1425187249e+00 -1.2163183562e-01 1.4658878385e-01 -6.6651547013e-01
949 1.1552270610e+00 1.4290294477e+00 1.9411415886e+00 -1.4851720666e-01 4.3300870736e-01 -9.1102812754e-01
950 2.6252488498e-01 5.9525355613e-01 -7.8320484821e-01 -2.0100275052e-01 4.1438962537e-01 -3.4357661045e-01
951 6.9705913836e-01 -1.6263083049e+00 -3.7194636605e-01 1.4472032430e-02 2.0891046835e-02 -1.1848611328e-02
952 -4.0354007050e-01 -1.6985628294e-01 -1.6992587691e-01 -3.1983718071e-01 8.5452084287e-01 4.4731878043e-01
953 1.1012638169e+00 -1.0718060971e-01 1.0020598197e-01 -1.8864974347e-01 -4.2612435892e-01 9.3648986332e-02
954 5.8610363564e-01 1.0950531120e+00 1.0392548647e+00 -4.9903505416e-01 -1.4901060761e-01 7.0267529964e-01
955 8.4120944271e-01 3.8460915839e-01 1.5311450297e+00 -7.1951143111e-01 -6.6531090228e-01 8.7625027517e-01
956 1.8065838762e-01 3.1094389558e-01 -7.4132596270e-01 -2.9848783370e-01 -5.8429947590e-01 -2.5002180932e-01
957 2.7248833235e+00 -8.3862536728e-01 -1.1052876646e+00 -1.1912505438e+00 2.7983736328e-01 5.0672229848e-02
958 1.4817002831e-01 -2.9723425832e-02 -2.2933011446e+00 4.9901242471e-01 -9.8975944969e-01 8.3349432393e-01
959 3.3731506071e-01 -1.8766003117e+00 5.9374801550e-01 -1.7991218150e-01 8.7249100373e-01 2.2530710851e-01
960 -1.1946598803e+00 1.1803648440e+00 -7.0774861526e-01 7.2752170823e-03 -4.6823478806e-01 -5.3128039996e-02
961 2.6672650729e-01 -1.8534990877e+00 -1.1049696924e+00 9.9524124527e-02 -1.2025689949e+00 2.0452048482e-01
962 1.1760049587e+00 5.5348230962e-01 2.4136275169e+00 1.3263611322e-01 1.2358911743e-02 -2.0162402179e-01
963 -4.1972317908e-01 1.3104539335e+00 2.1960673725e+00 -2.1286495823e-01 9.7108287684e-02 5.2854870083e-01
964 -1.2294362204e+00 -4.9755158850e-01 1.0644318113e-01 8.7630301951e-02 -1.1341613648e-01 8.1314185882e-02
965 -4.3942827401e-01 -4.2058606853e-02 -3.5762248182e-01 -3.1973779231e-02 -6.6571232238e-02 -8.6375282884e-02
966 1.2914849804e+00 -1.5428747943e+00 1.2001771028e+00 1.4036189633e-01 -5.8685932735e-02 5.1392643995e-01
967 3.4777194276e-01 -5.2823359312e-01 2.9420395791e-03 -2.6812013035e-02 1.2381634026e-01 -1.7078467358e-01
968 9.7284474586e-01 1.9187542576e+00 -6.4848151498e-01 -1.0467335441e-01 -1.8138434912e-01 -4.4979126836e-02
969 -6.6127261993e-01 -1.6005096062e+00 1.9963056196e-01 -4.2603382323e-01 3.5228245975e-01 7.1059404301e-02
970 -3.7710660326e-01 1.6829309575e+00 -2.5936352185e-01 4.3996411729e-01 8.1806549164e-01 7.8063020501e-01
971 -9.9163223225e-01 -1.5750627102e-01 2.7235384839e-01 8.7820042474e-01 -6.0905052425e-02 9.2468611663e-02
972 -2.4689966262e+00 -1.1008565708e+00 -1.0174474982e+00 1.0080335318e-03 1.7537315387e-01 -4.0529379045e-01
973 -1.4317943661e-01 9.2322929368e-01 -1.2318626106e+00 -2.5114330786e-02 1.2631366150e-01 4.1023257308e-01
974 -1.1744661511e-01 9.3282004317e-02 2.8593001712e+00 1.5659428705e-01 -2.2497465311e-01 -1.4818300023e-01
975 4.6587890542e-01 -6.0414583691e-01 -2.6311146790e-01 -5.9880581426e-02 -3.2011455963e-01 6.9449668476e-01
976 -1.2100873911e-01 3.7309332157e-01 1.3274416739e+00 -1.3516051363e-01 2.3244238188e-01 -2.8944522566e-01
977 -8.9270745078e-01 6.2230214202e-01 -2.8997861889e-01 -1.2199163217e+00 1.7601069139e-02 -5.4279613036e-01
978 3.3104104980e-01 -8.9177669464e-01 5.6730656318e-01 -9.1067728845e-02 1.2163285780e-01 6.2535226805e-02
979 2.4012010894e-01 2.5788152495e-01 -7.3165179556e-01 -9.7255200585e-02 -2.6037964255e-02 2.9193602670e-02
980 4.8258753078e-01 1.1278401345e+00 1.8909004304e+00 -2.4633029515e-01 8.1644344018e-02 2.8313603042e-02
981 -2.8859604109e-02 1.2272597423e+00 6.9823460845e-01 6.1930094524e-01 -2.3765917154e-01 1.2436766575e-01
982 3.0799043852e-01 -5.7014706473e-01 -1.6114256751e-02 -8.8190783190e-02 7.2795975066e-02 -2.2871536396e-02
983 -1.1744807191e+00 -6.1934837347e-02 5.8728875707e-01 -6.5178736526e-01 -2.5258844587e-02 3.2643558029e-01
984 -3.4624853631e-01 1.7290539384e-01 9.9132352999e-01 -2.9466857113e-01 -3.1076879142e-01 -3.6434326357e-01
985 -1.0516099337e+00 -1.5007597577e+00 -1.0948883226e-01 3.0260106082e-02 -4.5592686518e-01 4.1696221144e-01
986 -6.2939622590e-01 -7.4107263721e-01 -1.7558449464e-01 2.5583103805e-02 5.8328568642e-03 -5.0857862890e-02
987 1.4246389621e+00 4.0121240708e-03 -1.1882447272e+00 5.4990068682e-02 2.3585571903e-01 9.3761629398e-01
988 -5.4072072019e-01 1.3117173296e-01 -4.2817060376e-01 -5.3963747017e-02 -2.1683728893e-01 3.9193074223e-01
989 1.9752528259e+00 -1.7421901569e-01 -2.7673316876e-01 -1.8347149986e-01 1.5126817841e-01 -2.6639631346e-01
990 2.8807755785e-01 1.2820650126e+00 -3.4585911021e-01 -2.7853049042e-01 -3.5906200117e-01 -4.7589606590e-01
991 2.0668376063e-01 2.8824877530e+00 -3.5215982548e-01 2.7799467384e-01 -4.2813313633e-01 5.2729388124e-02
992 6.2274307577e-01 -2.3038124404e-01 -1.4535525274e-01 -2.0945696871e-01 -5.0720356385e-03 -9.3768851883e-01
993 1.0840487739e+00 1.0121799276e-01 6.1011336694e-01 1.9646760357e-01 2.9966645174e-01 -2.1311140738e-02
994 -6.1995860911e-01 -1.4832616160e+00 -4.9482933780e-01 9.0377274770e-01 -2.0766475926e-01 1.4264023339e+00
995 1.6808270846e-01 -1.0987671553e+00 -4.4569754964e-01 -2.1829547383e-01 3.4533105505e-01 5.2538417087e-01
996 -1.9089132474e+00 2.4087798690e+00 4.0551554768e-01 3.8846308186e-01 8.3594037676e-01 -1.6621849102e-01
997 -3.6747411294e-01 -3.7237185138e-01 4.3108562888e-02 -7.1543631348e-01 -1.4325601528e-02 5.3117717820e-01
998 8.8076777286e-02 6.5469181395e-01 1.7173842849e+00 1.9892369501e-01 -1.2416714780e-01 1.7114159093e-01
999 -5.1182012384e-02 -9.6341380885e-01 -1.0030349691e+00 -1.9837484821e-01 1.5780752021e-01 8.7582043830e-01
1000 -3.1144865650e-01 -1.1022792567e+00 -1.0890621133e+00 -6.7737345295e-02 1.5466546425e-01 -2.6708635088e-02
1001 1.0558438418e+00 -8.3967223408e-01 7.6030219444e-01 -3.4594007554e-01 8.1479495748e-01 2.2652429007e-01
1002 7.2489527573e-01 7.5069232163e-01 9.3234675488e-01 2.3505051135e-01 4.1863699702e-02 1.5800010162e-01
1003 -9.9864910226e-01 -6.6256299666e-02 -1.4804966708e-01 4.4891342042e-01 3.3955937887e-01 4.1643616882e-01
1004 -1.6876242280e+00 3.3268975412e-01 -1.8516305407e+00 -1.5170826590e-01 3.5917628187e-01 -2.2063922846e-01
1005 2.3061901200e-01 1.2345394379e+00 -1.5824828432e+00 6.6712036215e-01 -8.6153439988e-01 2.1133409226e-01
1006 1.8286853030e+00 -3.7048111496e-01 -1.0367873843e+00 -3.3394622987e-01 -3.3396151744e-01 1.1075461939e-01
1007 9.9506420765e-01 -1.5742893188e+00 8.0304354126e-01 -4.4279089387e-02 1.8909019243e-01 9.6397606585e-01
1008 -1.0128759126e+00 2.9088188118e-01 -1.7411008181e+00 2.4052806696e-01 -2.0887305381e-01 -1.8366676931e-01
1009 7.0973946606e-01 2.7065206750e-01 3.1082336113e+00 -9.2378762157e-02 8.1853682130e-02 -2.2738340569e-01
1010 1.0332491073e-01 1.0123373603e+00 -1.9375885507e-01 4.9136790455e-02 1.6250302715e-02 1.0302627757e-01
1011 1.5616450127e+00 -7.1899989803e-01 1.8982086105e-01 1.4975207074e-02 6.5684703527e-02 -3.5576272911e-02
1012 6.4019631797e-01 -5.0096407750e-01 5.4155318122e-01 -2.9536451857e-02 5.7220985347e-01 5.7700303086e-01
1013 -2.8806481368e+00 -9.8138999872e-01 9.1671836023e-01 -5.5714464814e-02 -9.8103660393e-02 -6.1830269286e-01
1014 -1.1441376384e+00 -1.6975851571e-01 -1.2944273125e-01 -2.7440962731e-01 -5.8231295749e-01 -7.4916030317e-01
1015 3.8229683684e-01 6.4510777177e-02 -7.5878962917e-01 -1.4556681190e-01 -8.3453167921e-02 -1.2434906561e-01
1016 -4.2392049603e-01 -4.3001925638e-01 1.4224456569e-01 4.4264091076e-01 -2.8632280476e-01 3.3333418734e-01
1017 -5.9123326671e-02 1.7192598515e-02 1.2753822168e+00 6.2601315122e-01 -7.2113534985e-01 -1.1183442448e-01
1018 2.5582678397e-01 1.0757365759e+00 1.1460890742e+00 6.6752781359e-01 -6.5376087703e-01 -1.6755081981e-01
1019 -3.4162941842e-01 9.7826688197e-01 -1.0585398540e+00 -1.1846201499e-02 7.0017946401e-01 5.0459137962e-01
1020 3.7688225974e-01 6.8027027180e-01 -6.6341000434e-01 -4.4974983749e-02 -2.0867890096e-02 1.2935543619e-01
1021 1.3500631710e+00 3.2302668991e-01 -7.9339538707e-01 -4.0148457639e-01 3.7460186437e-01 -1.5953623224e-02
1022 -3.3636839465e-01 6.2970252874e-02 -1.6111324703e-01 -3.7256688729e-01 1.2473597056e-03 -6.8918731992e-02
1023 -1.7984522474e+00 -1.9660193611e-01 -2.4732723684e+00 -5.5135909600e-01 -7.4443531140e-02 -3.6205552440e-01
1024 4.3031268529e-02 -4.7219746764e-01 2.5993277510e-01 -6.8755494064e-02 1.6865471641e-01 -3.2027912736e-01
1025 1.8130283709e+00 5.9755786247e-01 -1.2682836054e+00 -4.0975883592e-01 8.4526256232e-02 -3.1263493523e-01
1026 8.7940431057e-01 7.8238229437e-01 -5.6440017247e-01 -1.1676579177e-01 -2.9801681803e-01 7.1179832356e-01
1027 -9.4439413989e-01 8.4014151495e-01 1.1188953439e-01 -4.8257046643e-01 7.6918558513e-01 -2.0976014429e-01
1028 -8.9908445852e-01 -2.0596361096e-01 -4.1485017552e-01 -3.1821709423e-01 -2.4847885619e-01 6.0316317203e-03
1029 1.3939875148e+00 -1.3274428064e-01 -2.0764227208e-01 -2.1009467961e-02 4.4592744988e-01 -1.1391658032e+00
1030 -1.4595760006e+00 -1.0013945269e+00 2.1195979509e+00 -4.9130441106e-01 -1.2108391444e-01 5.8297880645e-01
1031 -1.4274391244e+00 -2.2271325313e-01 -1.1028342151e+00 4.6998692392e-01 -5.7927528963e-01 1.8263463656e-02
1032 4.2461341668e-01 -1.8211189863e+00 1.7686626284e+00 8.4197213653e-02 1.1964070459e-01 1.7297017401e-01
1033 1.3406000278e+00 7.5018422915e-01 -1.0360148444e+00 6.3431749265e-01 -7.5990634162e-01 7.1680396315e-02
1034 9.4434073167e-01 -6.5981794909e-01 -1.1955713687e+00 -1.5553172259e-01 -6.5962777299e-02 -1.2308228593e-01
1035 1.0882761291e+00 7.4434674154e-01 -4.9135363744e-01 9.0685401440e-01 3.5554080332e-01 -1.2538422384e-01
1036 5.2336601250e-01 -8.3032728358e-01 -1.5363037984e-01 2.2719851320e-02 2.0737348725e-01 3.7668655119e-01
1037 -3.3568175591e-01 6.5991327714e-01 1.9042681546e+00 -8.8670659804e-01 -4.0340442586e-01 -2.2408167191e-01
1038 -1.2669732663e+00 1.8889568094e-01 -3.1338720593e-01 -4.2451790800e-01 -8.2235492270e-02 -6.3930739629e-02
1039 1.4311863330e+00 8.2003410504e-01 3.3136951804e+00 -5.7076986341e-01 -6.7941544169e-02 -5.6806439999e-01
1040 -1.0389125039e+00 3.9181546898e-01 1.2940773724e+00 1.0661390842e-01 -8.5593482704e-02 7.9572839407e-02
1041 3.3764999500e-01 5.9089999788e-01 -1.5704222555e+00 -2.3629497626e-01 -2.2854760007e-01 -3.5981988076e-02
1042 -2.4969401741e-01 5.0515851812e-01 6.2043956521e-01 -1.0429247683e-01 2.2374231805e-01 -8.7301841615e-01
1043 7.5574306583e-01 -2.6786602080e-01 1.2231137542e+00 2.1438941757e-01 2.7388639432e-01 -1.4207220317e-01
1044 -1.3484947052e+00 -5.3813518497e-01 -9.9304730416e-01 3.8886985100e-01 4.8791559799e-01 -5.1943489962e-01
1045 -1.1689300437e+00 1.5835732447e-01 -5.2399410315e-01 2.4128570165e-02 -4.5210377201e-01 6.6398424969e-01
1046 -1.1223931913e+00 7.5673963322e-01 8.7290617878e-01 1.8205891523e-01 -1.0572435539e-01 1.5531970348e-01
1047 -1.6286992842e-01 1.2130292105e+00 5.9487449022e-01 2.6155531309e-01 -5.3721434640e-01 3.3269836400e-01
1048 1.2053854874e+00 -1.0633103702e+00 -8.7310458521e-01 1.4999698347e-01 -5.3895837741e-01 1.7375641533e-01
1049 4.9195873938e-01 -3.8372930555e-01 4.8113424066e-01 2.2939302603e-01 1.8139513796e-01 3.7063814493e-01
1050 -2.2424882410e+00 -7.6319728012e-01 -3.5094140116e-01 -3.7742883870e-01 -6.4112024819e-01 3.6896093001e-01
1051 1.7303086853e+00 1.3971484801e+00 -1.0262911294e+00 1.3970822928e-01 -5.0942401088e-01 -4.8329491110e-01
1052 2.0072483411e+00 -1.4171524167e+00 -3.0798201880e+00 4.2207725439e-01 -5.0407849824e-01 -1.5056474640e-01
1053 -4.7483484084e-04 9.8902277382e-01 9.2837884602e-02 6.6959792983e-01 6.6136676972e-01 -7.7874370016e-02
1054 1.9136220788e-01 -2.1554276024e-01 1.0973021686e-01 7.2797733328e-01 1.5852881651e-01 -5.7689992336e-02
1055 -1.1306443806e+00 -3.7971049746e-01 -5.5198254961e-01 -2.2301660901e-01 -6.4673786337e-01 2.8719561614e-01
1056 -1.5903779928e-01 -1.3392318996e+00 1.9007820956e-01 -8.1749402648e-02 8.6467829755e-02 4.5144839428e-02
1057 -5.6061611298e-01 5.4858505503e-02 1.3749317431e-01 5.4118673537e-01 -3.0911485493e-01 -3.1373040244e-01
1058 -8.4962276888e-01 -5.7265454598e-01 1.6334188909e-01 -4.7060011404e-01 1.8268763429e-01 3.8396695470e-01
1059 -1.4587140130e+00 -8.0686137121e-01 2.8716477727e-01 -2.9243460541e-01 6.1250241061e-01 -5.2957550398e-02
1060 -1.5805315776e+00 -7.0254931443e-01 -4.6430765023e-01 2.3660326606e-01 -1.6308231355e-01 5.9234260337e-01
1061 -1.4499926079e-01 1.8512675444e-01 -1.6231850412e+00 3.7559475900e-01 -3.4820683669e-02 1.6896409540e-01
1062 2.0056275692e+00 3.4368128789e+00 9.9650432090e-01 3.4171199060e-01 8.3499558785e-02 2.5823377454e-01
1063 -9.3475953325e-01 -1.0449267098e+00 -1.6086539356e+00 3.4184931467e-01 -5.2052593889e-01 1.0297378788e-02
1064 1.4549518488e+00 3.5704374155e-01 -9.3671175420e-01 3.4590582711e-01 -8.0915048345e-02 -4.2968051590e-02
1065 4.2400182935e-01 7.1592288744e-02 6.8318521916e-01 -3.7540677283e-01 -1.1506161004e-01 -6.3777929504e-01
1066 -3.5983958905e-01 -9.9720049890e-01 8.5972292754e-01 -3.2673264310e-01 -7.8290689547e-01 3.1284513399e-01
1067 2.3496230511e+00 -9.2255486694e-01 -1.2572881028e+00 -1.0173383930e-01 1.7761967660e-01 -8.8771218427e-02
1068 -1.4719404908e+00 -1.4058865570e-01 1.3263074814e+00 -7.5102830265e-02 1.0515630323e-01 2.7275714421e-02
1069 2.2386549616e-01 -6.7518610716e-01 -1.2851044783e+00 2.0880537371e-01 -2.7769161411e-02 3.6675629134e-01
1070 8.5883670894e-01 6.6298046166e-01 1.2650238840e+00 -5.4088843899e-01 -1.0920646556e-01 -6.5413134473e-01
1071 -1.6786832932e-01 4.2644789645e-01 8.8284680522e-01 -1.2915885237e-01 -1.7147246250e-01 -2.6270810672e-01
1072 3.2634767654e-01 1.0907792148e+00 -1.6108680583e+00 1.2585595537e-02 -1.1563672578e+00 -2.9228444652e-01
1073 6.4463138240e-01 -1.5583695535e+00 5.0206333285e-01 -1.0304424541e-01 -9.1979451323e-02 -1.0712778683e-01
1074 -1.9264752401e-01 -3.0833646620e-02 1.3411108833e-01 -6.4753065402e-01 -2.8171820193e-01 -2.1910074633e-01
1075 5.9593573923e-01 -8.5067663892e-01 1.1403835250e+00 -8.3192027855e-02 2.3061182650e-01 -1.9363058450e-01
1076 -1.7159102155e+00 -5.0055955101e-01 2.5387824541e-01 1.5991082255e-01 5.4695646300e-01 1.0638523461e+00
1077 -1.9104377647e-01 -2.3282612918e-01 -8.1848629138e-01 -4.1773971616e-01 5.3692202544e-01 1.6272325548e-01
1078 6.9040171594e-01 -9.6046939868e-01 -3.1832123140e-01 -8.5082878458e-02 1.9689220121e-01 -1.2119074476e-01
1079 1.3607632211e+00 -2.6162650720e-01 -1.6166534150e+00 -2.0941357704e-02 -1.0032861007e-01 1.1126827824e-01
1080 6.3548642297e-01 -1.8810920362e+00 4.0102492984e-01 -2.6139379001e-01 -9.2427039249e-03 -3.3983126432e-01
1081 -2.6379985780e-01 -1.9258291413e+00 1.3611513250e-01 1.1313986420e-01 -2.2730362414e-01 2.2350353660e-01
1082 6.8054398317e-01 -1.8035978537e+00 1.1054259772e-01 1.6375989111e-02 -4.7450695658e-01 -1.9301229621e-02
1083 2.4640798158e-01 -3.9122906221e-01 -1.0064646302e+00 1.0056320038e+00 -9.4311560888e-02 -6.1146627869e-01
1084 5.8450171617e-01 5.1013656933e-01 -6.1671702290e-01 -2.3212840449e-02 -5.0410801711e-01 2.7537196412e-02
1085 -1.3178841596e-01 1.9349871336e-02 -8.5393822699e-01 -8.4561404473e-03 4.2655763892e-02 6.0753437765e-01
1086 -1.3667265313e+00 -8.3255638196e-01 2.4376828228e+00 -1.0261473605e+00 8.1378267105e-01 2.0778857497e-01
1087 -7.5251624025e-01 -2.4005528352e-02 -1.5595008148e-01 1.6507783595e-01 -2.4032168530e-01 8.6138428873e-03
1088 5.4843274325e-01 -1.1075369077e+00 1.0405539336e-01 -6.8286045490e-01 1.2637774210e-01 6.9285675145e-01
1089 1.0661660895e+00 8.7486452397e-01 4.5504579881e-01 1.7005396837e-01 -1.3670351253e-01 -6.4282545161e-01
1090 -3.0864990802e-01 -1.0120064355e+00 1.0000022012e+00 -5.4998522245e-02 5.6076239622e-01 5.1475243210e-01
1091 1.4856585205e+00 2.0528308027e+00 2.0251449421e+00 2.9799377470e-02 6.9682134870e-02 -2.6412965238e-01
1092 7.1097739128e-01 1.1740169018e+00 1.7828970809e+00 -4.1120955732e-01 -5.4016264811e-01 4.7932635331e-01
1093 2.3535345811e-01 2.7355658695e-02 -1.1141737513e+00 3.1444400260e-01 1.7940793940e-01 9.8866166831e-02
1094 -1.8125719512e-01 7.4771661940e-01 4.2955798211e-01 -7.5646197934e-01 -3.5798613068e-02 -2.0746735615e-01
1095 -1.1428315609e+00 -4.6066890423e-01 -8.8375335418e-01 5.6472570313e-02 -1.1104474799e-01 -1.9207960197e-01
1096 7.9694964110e-01 1.2445274876e+00 -5.6697558985e-01 -4.1990287870e-01 -1.9503516867e-01 2.9249558324e-01
1097 1.0903800092e+00 1.1629786805e+00 -6.1037848087e-01 3.4597102399e-01 2.4682915011e-02 3.1037190454e-01
1098 1.0973225819e-01 1.5166699199e+00 -2.5040752554e-01 6.7097831225e-01 -4.5938905222e-02 3.5007175434e-01
1099 4.1054399201e-01 1.8891190988e+00 -1.0900149539e+00 -5.4004157531e-01 -1.1970173736e+00 2.7830690783e-01
1100 1.8382428234e-01 1.5425144877e+00 -2.5388932120e-01 5.2873002647e-01 1.5781195820e-01 -1.1469996126e+00
1101 4.1457784163e-01 -8.9627654301e-01 -1.9097948327e-01 -2.8027838794e-01 2.0154143634e-01 1.9413403589e-01
1102 -1.1694924020e+00 2.5063397517e+00 7.1166061571e-01 5.5831297262e-01 2.4485421637e-01 -3.2775148720e-01
1103 -3.0934779922e-01 3.0795877016e-01 -9.9030126085e-01 -9.4780737191e-01 -1.6203248256e-01 6.1694105738e-01
1104 1.0303567741e+00 -9.2514416735e-01 -6.8423770186e-01 -6.5105960881e-02 8.3262677510e-01 -3.6886376907e-01
1105 -8.7156720009e-01 7.8413073034e-01 -7.1533268796e-01 -1.1870637262e-01 -3.9956136006e-02 4.7844041611e-01
1106 1.7069084307e+00 1.8466817466e-01 -7.1744412268e-01 -6.7572486218e-01 -4.4580178140e-01 6.7791090335e-01
1107 -1.3470401420e+00 7.7878670605e-01 -4.6890199352e-01 -3.6735279493e-01 2.0579733589e-01 3.6260704858e-01
1108 8.1517650859e-01 -8.3229356426e-02 -2.1255350137e-01 -1.4026053859e-01 1.8709254642e-02 1.0951632672e-01
1109 -8.3107031726e-01 -1.3270721402e+00 3.7226722628e-01 -6.1219802488e-01 1.1474313912e-01 3.8560889846e-01
1110 4.1682967445e-01 1.0681627342e+00 -8.8866553107e-01 -3.4393617395e-01 -3.4474138353e-01 4.4274188001e-02
1111 6.7915048884e-01 -7.2944602466e-01 2.1113492455e+00 -2.0814739863e-01 6.7605083088e-01 1.6828794484e-01
1112 -3.3690003022e-02 -3.2347039223e-01 -1.3876893165e+00 3.4460848951e-01 3.2805690220e-04 3.2793767099e-02
1113 -3.2315031271e-01 -4.6967539326e-01 -7.3876739108e-01 7.0524634550e-02 -2.4360540400e-01 3.3890809034e-01
1114 -9.6156886727e-01 -1.7027950155e+00 -4.1348942001e-01 -2.5371218223e-01 1.0731895600e+00 1.7343675832e-01
1115 -5.9263259884e-01 1.0410648738e-01 5.9401487370e-01 6.4449262169e-01 -1.5866420517e-01 -2.4140279837e-01
1116 9.1162233663e-01 7.8117673860e-02 -5.2728439941e-02 4.5759904717e-01 -4.4811771169e-01 1.3901267339e-01
1117 2.1975628413e-01 -1.6696202594e+00 -1.9728171190e-01 -6.4598657787e-01 -2.4217919209e-01 3.7505924701e-01
1118 2.9810575018e-01 1.3916574151e+00 1.2956927031e-01 5.2423318791e-03 1.1262163530e-01 9.3828253104e-02
1119 -1.1728545094e+00 1.3294810498e+00 -9.5026758816e-01 -1.0583348275e-01 1.0261165368e-01 -2.0933290531e-01
1120 -6.5409514093e-01 -8.7369947171e-01 1.6209884836e+00 1.7148957436e-01 2.1010734301e-01 9.5665068087e-01
1121 9.2032115359e-01 6.1357179834e-01 -5.4761640512e-01 2.0889007020e-01 4.7891596004e-01 8.7101198809e-01
1122 -5.5863308357e-01 1.1278283169e+00 3.1358891791e-01 4.0679345600e-01 1.2330559239e+00 6.8461587882e-01
1123 -1.1946420503e-01 3.7523850176e-01 7.3441278607e-01 1.2909929775e+00 1.6000290152e-01 -6.5938113108e-02
1124 1.0347756436e-01 -1.3455676709e+00 -5.8589709095e-01 5.9482729649e-01 -2.3161496023e-02 9.8796424345e-02
1125 6.1185754167e-01 -8.7445116166e-01 -1.1313833533e+00 -1.4483631357e-01 -1.2428007836e-01 1.1437898796e-03
1126 -4.0466517753e-01 1.5060860801e-01 2.4856272246e+00 -2.3700577639e-01 -5.5289494482e-01 -1.7582255255e-01
1127 -8.4642960205e-01 8.9077170579e-01 8.2215636377e-02 1.2423139153e-02 -4.7760594492e-01 -1.1606863201e-01
1128 -3.4526915977e-01 -2.1475377556e+00 -2.2071908959e-01 7.3281086873e-01 7.5309708747e-01 -3.4539792970e-01
1129 -1.0263523244e+00 -8.0368080088e-01 -9.5109883448e-01 -2.1604790163e-01 -1.4803366779e-01 6.9511613777e-01
1130 -2.4771989943e-02 -2.9335352864e+00 -3.3784978435e-01 2.6590094351e-01 -4.4805322166e-01 -3.0042525873e-01
1131 4.5168490521e-01 6.5088689471e-02 1.0437498156e+00 6.0715679638e-01 3.6802265034e-01 8.3011549546e-01
1132 4.0511364854e-01 4.2558275583e-01 -1.0175161735e+00 -1.0680415028e-01 -5.7151043360e-01 1.9941642467e-01
1133 9.0018370917e-01 3.3220390932e-01 -1.4289682584e+00 7.4453804378e-01 -1.4495903670e-02 3.7456147388e-01
1134 -2.7814021425e-01 9.9703637205e-01 -1.1548706382e+00 -1.1610421013e+00 7.7119756145e-03 -1.0427916891e+00
1135 1.0531779999e+00 -8.9535450550e-01 -5.5234809435e-01 -1.2276178175e-02 2.9748068623e-02 1.5532730250e-01
1136 -4.1957158763e-01 6.4131011626e-01 -3.7304904843e-01 -1.2332608958e-02 5.3275649272e-01 8.2257057883e-01
1137 -2.2898683518e+00 -4.0666774564e-01 -2.3696263517e+00 8.4915243118e-02 7.6335161641e-01 -2.3015970713e-01
1138 -1.0175932610e+00 3.4197975762e-01 9.8465953537e-01 -7.6711942845e-02 -6.1811291618e-01 -3.5036805063e-01
1139 2.3672387513e-01 -3.2330849284e-01 -1.5999949949e-01 5.4067199395e-01 2.1315965629e-01 1.2343388395e-01
1140 -2.5635053367e-01 1.6001870324e+00 -1.1911856705e+00 -2.2183055481e-01 -3.2370098733e-01 6.3135771142e-01
1141 -6.3262101020e-01 -1.5589351771e+00 3.4424769808e-01 2.0092447830e-01 4.4480071507e-02 2.0798875549e-01
1142 9.9840696168e-01 -4.3521770006e-01 -3.4585314319e-02 1.9938868015e-02 -1.9723538887e-01 -2.5071566049e-01
1143 1.0246502891e+00 7.8461007163e-01 3.2039685250e-02 -3.2648315332e-01 -5.8331138155e-02 1.5670891221e-01
1144 9.3100636151e-01 -5.6631865671e-02 1.3884171633e-01 -4.2232556969e-02 -1.2788330454e-01 -1.5726278717e+00
1145 7.4469194996e-01 -9.2078803486e-01 1.7191188015e+00 2.8682328739e-01 2.9563176626e-01 4.2152803576e-01
1146 7.6301938582e-01 -3.4268465484e-03 2.6843026690e-01 3.6684636653e-02 4.5121501716e-01 2.0568773491e-01
1147 2.6521161930e-01 -6.1566228717e-01 3.1201915634e+00 -1.7329639647e-02 2.7709101068e-02 5.2611275893e-01
1148 1.2997897140e+00 -1.4803142888e+00 3.7816184798e-01 -8.4551440617e-01 -1.0739957381e+00 -2.4120080933e-01
1149 -2.5942434789e-01 -7.9326305688e-01 -3.2036188730e-01 -5.4769755151e-01 7.1382671148e-01 -3.4586275447e-01
1150 2.2175068116e-02 9.3011194665e-01 5.2387565077e-01 6.1965916460e-01 2.1214662681e-01 -2.5878779408e-01
1151 6.1906696144e-01 -3.3333946597e-01 1.0692499273e-01 -4.4049347023e-01 -4.8982424422e-02 1.1615426916e-01
1152 -1.3598052997e+00 -8.7867917670e-01 3.9579315704e-01 -1.4347686009e-01 1.3975102314e-01 5.7578137212e-01
1153 2.8114372425e-01 1.0726464512e+00 1.0871512196e+00 5.2842755636e-01 -6.0605899000e-01 -1.8812862582e-01
1154 4.2311569924e-01 9.0636442339e-01 -1.6290931749e+00 2.8045719930e-01 2.4320825115e-02 -8.4145781684e-01
1155 1.2552965358e-01 1.7224152485e+00 -2.0877175455e+00 -1.9503204509e-01 3.3145370970e-01 -3.2429396724e-01
1156 8.1586019578e-01 -2.8593709130e-01 1.7225181527e+00 -5.1379009462e-02 2.5344639361e-01 -1.0423876975e-01
1157 -1.7032040745e-01 -6.4053565731e-01 -5.8589292386e-01 -1.6743288920e-01 1.4414694479e-01 -7.9491563141e-02
1158 5.0700201249e-01 2.7634782368e-01 3.6757933279e-01 -4.5220780066e-01 -1.2793965107e-01 5.4966898397e-01
1159 6.5840956401e-01 -1.0483496149e+00 -3.8086736558e-01 -2.4441483064e-01 -2.9431367360e-01 -3.8543788711e-01
1160 -2.5910787221e+00 -3.2799960031e-01 -2.7219204053e-01 1.0864509174e+00 1.1366009531e-01 -4.0649327165e-02
1161 3.4226414525e-01 -9.1456235959e-01 8.9553834846e-01 2.6974839248e-01 7.1875135663e-01 6.7415725575e-01
1162 1.4662818086e+00 -1.4468653171e+00 1.8291026895e+00 -5.1431286956e-02 -3.6098873056e-01 4.6679425200e-01
1163 2.2817887484e+00 1.4419237384e+00 -4.9741367497e-01 -3.5520982585e-01 -5.5491754007e-02 2.3127033515e-01
1164 9.9751645901e-01 1.5947974989e+00 -1.9080634373e-01 7.6286966589e-02 -6.5220990285e-01 1.6966719275e-01
1165 -4.0949263499e-01 2.3818887689e+00 2.6210356614e+00 -4.0958390909e-02 7.4576511066e-01 -3.5259146796e-01
1166 1.2536619542e-01 -3.1851929737e-01 1.9383307454e+00 3.3162354156e-01 -7.8325196652e-02 -1.5304200839e+00
1167 4.6317519218e-01 -1.6691644783e+00 3.7139638867e-01 -5.0699951941e-01 -8.3869585594e-01 5.6633555065e-01
1168 6.0773116194e-02 2.4675273375e-01 -1.2854169986e-01 -3.3004843288e-01 -3.2058267756e-01 4.8522067825e-02
1169 2.0330518426e+00 3.3764474226e-01 -5.9861211671e-02 6.5295044421e-01 1.1045135186e-01 -4.9629215704e-01
1170 -2.0389486870e+00 3.4821278783e-01 1.5006610813e+00 1.2285386085e+00 -3.9828531838e-01 -9.5702522252e-01
1171 2.2146187502e-02 -2.0595800267e+00 -1.7266892318e+00 -1.0470990638e-01 1.5630658511e-02 -8.5084724779e-02
1172 -1.4492084260e+00 -1.1197228193e+00 -1.8565783829e+00 -4.1771854564e-01 4.2896680898e-01 4.3182837627e-01
1173 4.6556565448e-01 -3.4557424664e-01 1.8970840650e+00 5.2148167800e-02 7.8601337343e-01 -1.0027231642e+00
1174 -1.6529365175e+00 2.3894349230e-03 -2.4157539743e-02 3.9672009633e-01 4.1464916317e-01 2.3468509807e-01
1175 7.0769807921e-02 -3.5145880218e-01 1.4262533154e+00 -3.6983625445e-01 6.2267069848e-01 2.7888704320e-02
1176 2.4011376903e+00 7.4092685321e-01 -1.6740777197e+00 -6.1224398905e-01 -1.1828569477e-01 1.2822421144e-01
1177 1.1980272073e+00 4.2642135280e-01 2.9186971688e-01 -4.3798742839e-01 2.7742066583e-01 3.3869576520e-01
1178 2.1792909324e+00 5.8178686327e-01 -7.0722958678e-01 7.5594048579e-02 1.7321845742e-01 4.0901046252e-01
1179 -3.4682781274e-01 4.1899472026e-03 -1.8392066294e-01 4.1454844566e-01 2.6359160751e-01 -5.6018883700e-01
1180 -6.6572792949e-01 -9.2523042660e-01 -8.2558150791e-01 5.7238328984e-02 -8.1844794532e-01 -5.2893612854e-01
1181 8.5732674305e-01 7.1677443667e-01 -1.7898899285e-01 4.4705052709e-02 -1.3350435870e-01 1.5683249499e-01
1182 -1.4998830217e-01 7.5465958450e-01 -1.1419176108e+00 2.7925536959e-01 -1.9107506544e-01 2.7607987342e-01
1183 -1.3386610584e+00 2.1557059467e-01 6.5169226296e-01 -1.6967681730e-01 5.5140251350e-01 1.8114405608e-01
1184 1.8313609062e-01 -1.3761867357e+00 -1.0997576833e+00 -8.4015523685e-02 1.8429491846e-02 5.8351875578e-01
1185 1.7523229564e-01 -2.0636765330e-02 -9.6596716267e-01 4.2029984730e-01 -2.3538690286e-01 -1.7588605796e-01
1186 1.4067216188e-01 -7.5256808506e-01 1.1338594140e+00 1.3230496694e-02 -2.2141568443e-01 -2.0195392249e-02
1187 3.5019861832e-01 -1.1558203810e+00 5.6170373436e-01 -2.3018336861e-01 -3.8501045640e-01 2.8553954904e-01
1188 1.0439527740e-01 1.6863936594e+00 5.8815314585e-01 3.2238951130e-01 1.5338259718e-01 3.5915178443e-01
1189 2.6293662005e-02 2.8380145342e-01 -1.2739523969e+00 -2.5791001531e-01 -4.0159574066e-01 5.9387106084e-01
1190 -1.4659817627e+00 5.3579421253e-01 5.2983783544e-02 4.0638145908e-01 -1.2146974848e-01 1.6629665960e-01
1191 -1.0706995656e+00 -9.9339983492e-02 1.0833911840e+00 5.5661953719e-01 4.7623640494e-01 -2.9819863665e-01
1192 -1.3490476033e+00 1.5504691377e+00 1.5681474902e-01 -4.9258425214e-02 -2.0534468914e-01 2.1251932097e-01
1193 -7.4832156575e-01 4.1930028387e-02 -8.8702255579e-01 -1.3204963256e-01 -7.7535527161e-03 -2.9213223282e-01
1194 -1.7390238357e-01 5.8681811029e-01 -1.2918708654e+00 6.0315919271e-01 8.6761288123e-02 -2.2401300061e-01
1195 -5.6729825977e-01 -2.1369462214e+00 -2.2678340153e-01 9.0510971775e-02 1.2560847557e-01 -2.1558287502e-01
1196 4.1870512460e-01 1.9110864656e+00 4.6965452819e-01 1.5925403803e-01 -3.7108165449e-01 -4.0158975682e-01
1197 2.0836277068e-01 5.3030727849e-01 -6.7434898248e-01 2.9769345001e-01 2.5927051204e-01 7.1377903935e-01
1198 1.5919796836e+00 4.7190448358e-01 2.7386245731e+00 -7.1126643627e-03 -3.4795933279e-01 6.8296943198e-02
1199 -4.8603155556e-01 -1.3648412893e+00 -2.8052516015e-01 4.1829685244e-01 5.7521794545e-01 -9.3180593930e-02
1200 -7.8488280661e-01 -1.5037220403e-01 -6.2034069809e-01 1.5470177589e-01 2.7891161232e-01 -7.5844091005e-01
1201 -9.7997312438e-01 9.4335474067e-01 1.1500325648e+00 5.8327179227e-01 7.3492207156e-02 -4.2218640597e-01
1202 3.0031115094e-02 -4.5999381366e-01 1.7346778087e+00 2.6387414903e-01 -3.5722802996e-01 2.4360856873e-01
1203 -1.4556609240e+00 5.1213226021e-01 8.8488431222e-01 -1.1822370340e-01 6.4360388661e-01 3.2129497098e-01
1204 -1.5225427928e+00 -6.6178518584e-01 -3.7395942513e-01 2.7805451854e-02 1.2037049967e-01 -1.2698987762e-02
1205 1.1597117580e+00 6.9064687827e-01 3.2501494722e-01 -4.3020993576e-01 -4.9206920620e-01 8.3940401371e-01
1206 -5.2734391753e-01 1.0976191873e+00 -8.0058789498e-01 -2.2640497770e-01 -3.1993867307e-02 8.3572039271e-01
1207 5.9072445693e-01 9.9387588602e-01 -1.0489211458e+00 1.6940942860e-01 3.3148625762e-01 1.1713278703e+00
1208 1.8564125212e+00 1.5112817772e+00 -1.6536592703e+00 8.1659789935e-02 2.7872206210e-01 4.2902656931e-01
1209 8.1470848781e-01 -1.2393798284e+00 5.2591751681e-01 5.7466529013e-01 -6.2857387322e-01 -3.6207176015e-01
1210 1.6846998603e-01 -3.8898093435e-01 5.5230577148e-01 -3.4999753872e-01 1.6208302959e-01 3.0797882910e-01
1211 -2.4452923912e-01 6.4353707278e-02 1.2406461777e+00 -9.1904780357e-02 -6.5179831559e-02 2.1171170838e-01
1212 1.9855956275e+00 2.4652059896e-01 5.1624789500e-02 2.6867590987e-01 -1.4692868884e-01 7.6299413395e-01
1213 1.7255837372e+00 -3.0935361938e-01 7.4473701589e-01 4.8931665941e-02 -2.9108460180e-01 1.3031518671e-03
1214 6.5020206628e-01 -5.3663253046e-01 -1.1044161782e+00 -8.6771398054e-01 4.2600000647e-01 -4.9225095773e-01
1215 8.8530764211e-01 9.3390615562e-01 -1.3240571077e+00 9.1368042446e-01 2.7230124035e-01 2.3412669493e-02
1216 1.1211241649e-01 -3.9077713983e-01 5.6158279462e-01 -3.2918650485e-01 1.9656872226e-01 -3.8019449862e-01
1217 6.8872616560e-01 1.2760735865e+00 -5.1252807372e-02 1.9342044494e-01 1.4428445857e-01 -7.3721982817e-01
1218 -3.4318213349e-01 9.2745564109e-01 -4.1384829692e-01 4.8168114137e-01 9.5313141733e-02 -8.5290050499e-01
1219 8.3103913279e-01 -1.2074642026e+00 4.0310966275e-01 -2.4187360419e-01 2.3067161329e-01 1.6579451912e+00
1220 -1.4922870041e+00 -1.0301677386e-01 -4.4030598559e-02 9.9393213476e-02 -6.0617260730e-02 -4.5467645728e-01
1221 -6.8029353750e-01 6.6292044955e-01 8.2800942855e-02 -2.8679078491e-01 -1.5960734056e-01 -5.9238709826e-01
1222 1.6015759025e+00 5.4280753618e-01 -7.1536671565e-01 4.7852458300e-01 -2.6455517410e-01 -8.7548644958e-01
1223 1.5177135225e-02 -3.5378421925e-01 -3.8066622258e-01 3.9438101518e-01 -5.3023669998e-01 -1.0682254329e+00
1224 2.2459244544e-01 3.5850950539e-01 -6.3766114953e-01 4.0813180809e-02 -3.6447555561e-01 3.4386631504e-02
1225 1.2741502060e-01 -3.8228099096e-01 6.8475694386e-01 -2.8529537880e-01 6.3656240419e-01 -1.0475832126e+00
1226 -5.3058906698e-01 -9.8768923235e-01 1.3067451471e+00 -3.3271809796e-01 7.5832271157e-02 -1.1273527011e-01
1227 -1.2223955906e-01 3.0184929600e-01 -2.0027266267e+00 -3.5190896777e-01 1.8104576718e-01 8.9526638176e-02
1228 5.7119124162e-01 -6.1811222847e-01 -1.0272410246e+00 5.3542350796e-01 -1.3514720960e+00 -1.8653498505e-01
1229 5.1729740761e-01 -1.3581332443e+00 -1.0977033540e+00 -8.2715404135e-01 -4.6754883104e-02 1.6595783428e-01
1230 7.8391546384e-01 -5.3993186897e-01 6.4457384094e-01 6.4259560507e-01 -2.5375357460e-01 2.1020367010e-01
1231 -7.6420477225e-01 -1.3631429933e+00 7.6159032361e-01 -1.0629849820e-01 9.1081696561e-02 -3.0734103151e-01
1232 1.6180853274e+00 1.4829293602e-01 6.3257918022e-01 3.3938246702e-01 4.1242684042e-01 -1.0995510283e-01
1233 -1.9177663889e+00 -6.8802370496e-01 1.9054740123e-01 8.8130025825e-02 -8.0146387600e-01 7.1170839253e-02
1234 4.1332590446e-01 -7.9710952768e-01 -8.9521223354e-01 3.7426125811e-01 8.8862932516e-01 1.9283380368e-01
1235 -9.1866073501e-01 1.5386241978e+00 -7.5561639361e-02 -1.3450726329e-01 -2.2560348734e-01 -6.3178532303e-01
1236 -2.0246786321e+00 -3.3032998317e-01 6.4567796001e-01 2.7102726317e-01 -6.7320496521e-02 -9.6081749120e-02
1237 -1.0636035680e+00 5.5677641890e-01 -1.3080427858e-01 1.1331091197e-01 -7.2209807777e-01 -3.9837684761e-01
1238 -1.7304048428e+00 5.1168713400e-01 -8.3350934060e-02 6.3367637706e-02 6.1000721128e-03 5.0883300808e-01
1239 -5.5486814621e-01 -1.3503934489e+00 1.6071214125e+00 -2.1017383202e-02 -3.3501397148e-01 1.2158174050e+00
1240 -1.7871922350e+00 -1.0179992817e+00 -7.3597486468e-01 7.5685478753e-01 2.2231815540e-01 4.1794100594e-01
1241 7.9075725210e-01 -4.6226615090e-02 9.7309258620e-01 -2.0731129313e-01 -2.0409194520e-02 -4.3887887572e-01
1242 9.1554495159e-01 -6.4860020675e-03 -7.1714666550e-01 6.0851087686e-01 -1.1361651244e-01 -1.1806127769e+00
1243 -6.2311914747e-01 1.8111967073e-01 6.4494779467e-01 -3.0881331409e-01 -3.2805493953e-01 1.0462693337e-01
1244 1.0060297434e+00 -7.5424324075e-01 1.7404248427e+00 -1.6358171299e-01 -1.2868573579e-01 -4.1362663324e-01
1245 -5.8170276563e-01 -7.0421297839e-01 1.7442636131e-01 -2.1374464259e-02 -3.9727642716e-01 -6.6240700696e-02
1246 1.6564181975e-01 -1.1936050435e+00 3.2511221170e-01 -4.3127208235e-01 -1.7538126432e-01 -3.1163756999e-01
1247 1.1547639042e-02 -2.4692394896e-01 -1.4406022974e-01 1.2414273574e-01 -7.9719471977e-01 -3.3937770271e-01
1248 4.4413424153e-01 7.6744316922e-01 -3.0107940584e-01 -4.4751142368e-01 -3.0160945832e-02 -3.9906629745e-02
1249 -1.0642648293e+00 -2.7246649665e-02 1.0413874713e+00 -6.1989248322e-01 4.4843892311e-01 -1.8633567099e-01
1250 -4.6654483297e-01 8.4313520272e-01 -1.4491135195e-01 1.1750375881e+00 1.3194361021e-01 1.0317119146e+00
1251 -2.2411050865e-01 -8.2704630038e-01 -1.7535269446e+00 5.7101598658e-01 7.7182278112e-01 -4.6041590607e-01
1252 1.1971306017e-01 -6.0269994825e-01 1.8507837826e+00 -1.2122614814e+00 -3.6584443525e-01 -6.6917532315e-01
1253 1.0453302700e+00 4.3296478011e-01 -5.9533161115e-01 -2.7855022754e-01 7.8786881590e-01 -1.5873601978e-02
1254 -5.7035459283e-01 -8.6207105729e-01 1.5848257100e+00 9.9394631528e-02 -4.0836969706e-01 -5.4188000668e-01
1255 -1.0725390935e+00 7.5363105025e-01 3.9447654303e-01 1.1081043597e+00 -4.3937123233e-01 1.6457223303e-01
1256 -1.0772191509e+00 2.2576862993e-01 -1.4153745356e+00 -6.0982070632e-02 2.0830707649e-01 -5.9519101553e-02
1257 -5.8529680115e-01 1.3438745758e+00 -5.1970404386e-01 9.8868774591e-02 9.4471392372e-03 -3.5389468086e-02
1258 -1.3770384048e+00 7.9012662170e-02 -1.4535115457e-01 -5.5898401066e-01 -5.6827681652e-01 5.5124156352e-02
1259 -1.6454958136e+00 5.9257147665e-01 -6.7782587398e-02 5.7881392133e-01 -4.6997607660e-01 1.5933430770e+00
1260 -3.6476426311e-01 2.3971584638e+00 -6.8510393639e-01 -2.0993167868e-01 4.2327981774e-01 4.6081786605e-01
1261 6.0407022860e-01 2.8940658862e-01 -1.1836361470e+00 5.9904740440e-02 1.8857325215e-01 -2.1447476563e-01
1262 -1.5764907245e+00 -3.5837299033e-01 -6.1816801654e-01 1.6108102991e-01 -3.2573542779e-02 -2.0073033935e-01
1263 -3.8001009224e-01 6.8414244957e-01 -5.8643511536e-01 7.4967898401e-01 7.2080640034e-01 1.3764941244e-02
1264 -3.1555772094e-01 -6.7437499291e-01 4.9476926962e-01 1.8777734907e-01 -4.0517130950e-01 -1.1024677744e-01
1265 -7.9352305674e-02 -6.7114257154e-01 -4.9366699129e-01 5.7277974724e-01 4.2225813190e-01 1.2330709249e-01
1266 7.3054590437e-01 7.7640295338e-01 -1.4574406490e+00 1.0280483077e-01 -1.6841203886e-01 -2.4005197558e-01
1267 1.7404807156e-01 3.5872011905e-01 -2.5662298451e+00 -2.0973243138e-01 2.8317102675e-01 2.8011514698e-01
1268 9.4885591809e-01 4.7980575732e-01 5.4405547303e-01 1.6243297471e-01 -3.8708354260e-02 3.5108833193e-01
1269 9.1934344891e-01 -9.6939212412e-01 9.7894178454e-01 2.4454689425e-01 -1.4144479562e-02 -4.8287500850e-01
1270 2.7988293361e-01 1.3421211039e-01 7.9382553882e-01 -2.4160669428e-02 1.0272623569e-01 7.3447119402e-01
1271 1.5917079598e+00 -7.8776165937e-01 -4.4988042102e-01 3.7795182477e-01 9.1455218684e-01 -1.8249720092e-01
1272 -9.1262114551e-01 1.7772658809e-01 6.7547499002e-02 2.6073397818e-02 1.1207753305e+00 -1.5644786414e-01
1273 3.3339147856e-02 -5.4038767712e-01 4.7231224680e-01 -6.0532105953e-01 -3.7154393917e-01 -3.0359785231e-02
1274 1.2543478404e-01 1.6169078558e+00 -2.0917288615e+00 -6.6324663933e-01 -1.6297426308e-01 6.0317458613e-01
1275 9.3946853466e-02 2.6679643172e+00 7.4879702825e-01 -3.8053958079e-01 1.1060259397e+00 1.6020895339e-02
1276 1.0153420495e+00 2.3433364460e+00 3.1296984514e-01 -6.5312703494e-02 4.3334951862e-02 5.9066922374e-02
1277 8.6673106452e-01 -1.3653172829e+00 -1.2734874658e+00 -5.6584069083e-03 -4.1498198216e-01 3.0437475266e-01
1278 3.5777789911e-01 4.4185394602e-01 1.0523031777e+00 -1.4773930852e-01 -7.0085752626e-01 -9.2643769472e-02
1279 -1.1807512257e+00 5.3083005799e-01 8.4764896194e-01 3.4521280683e-01 2.9867930931e-01 -8.1928234749e-02
1280 1.4344499814e-01 8.1808783458e-01 -6.4123298678e-01 3.7179701377e-01 4.9500704847e-01 -6.4735178926e-02
1281 9.1617184901e-01 4.1502002671e-01 1.0737358410e+00 3.4431443596e-01 -7.1424278640e-01 -1.5823309508e-02
1282 -4.3431690949e-01 -1.5296033503e-01 -1.4738258077e+00 1.1197173946e+00 -6.5485295787e-01 1.6385130519e-01
1283 4.6149986952e-01 2.6130667233e-01 7.0741898215e-01 2.3470603931e-01 3.2315378477e-01 -4.7371927431e-02
1284 -1.8643588269e-01 1.8455401523e+00 -1.4550935417e-01 1.0211259373e-01 1.2427087937e-01 4.7959020402e-01
1285 -4.6201014464e-01 -9.2566729781e-01 -8.3702228329e-01 -7.7208576318e-02 -1.3684154849e-01 2.5005525231e-01
1286 2.1498622940e+00 1.0570515369e+00 1.8830119354e+00 -3.7715759291e-01 -1.2776034673e-01 3.7205731790e-01
1287 1.0604815917e+00 -1.1409496536e-06 -1.0025406472e+00 -3.8539398341e-02 -3.4401083007e-01 -4.2909774095e-01
1288 -1.0981155598e+00 1.7080577514e-01 6.3973250720e-02 9.5204110657e-02 -3.9617070246e-01 2.9521599097e-01
1289 -1.0891574278e+00 1.7006428740e-01 -4.4617445260e-01 -8.4334961568e-02 -7.7694324488e-03 4.2005194992e-02
1290 -1.0457259650e+00 -6.3228722947e-01 3.6219185886e-01 -1.8217295474e-01 -1.1080553256e-01 -1.9083928339e-01
1291 1.3966879273e+00 5.2260875742e-01 1.3099154894e+00 2.4446937462e-01 2.2094765809e-01 1.1787272813e-01
1292 7.5726062439e-01 -5.6163796306e-01 -1.0529113780e+00 -1.3178525626e-02 3.7171318319e-01 -3.5751933553e-01
1293 -1.6410783616e-01 -3.6199914812e-01 -9.4270093281e-01 -4.7874790928e-01 1.2879383420e-03 -1.9211110777e-01
1294 -7.9624510169e-01 -1.7093868617e+00 7.9591020298e-01 -7.3682088919e-02 -7.8264511508e-02 2.0400477784e-01
1295 1.0217254417e-01 -6.6184455892e-01 -5.7138652232e-01 -3.9427788924e-01 4.3924108848e-01 4.7628610357e-01
1296 2.8882472086e-01 -6.7827308234e-01 3.4088916581e-01 2.7474557342e-01 -2.0497208843e-01 -2.1776790122e-01
1297 -2.8085953427e-01 -7.8023404143e-01 -3.8847004171e-01 3.4522294108e-01 -3.1572084239e-01 1.3852714365e-01
1298 -1.5621126332e-01 2.5422192077e+00 2.3962568334e+00 -2.3633450081e-01 1.2297677019e+00 -4.5656170901e-01
1299 3.8107731800e-01 6.2230283605e-01 -1.1430130815e+00 -5.6977156444e-01 7.7717758792e-01 7.6104659632e-01
1300 1.0363151297e+00 4.7321350359e-01 9.8552284996e-01 -1.0360780134e-01 2.2402280161e-01 -7.2887592492e-01
1301 -5.5841340455e-01 -4.3545116025e-02 -1.3623226737e+00 6.5912695798e-01 3.3410703076e-02 -4.8425308438e-01
1302 -1.0347614835e+00 3.1251316268e-01 3.7033459755e-01 -1.0122965645e+00 -3.8469247912e-01 1.9840904552e-01
1303 1.5283071387e+00 -1.1469007050e+00 -3.2256377594e-01 -6.5209263520e-01 9.3356441980e-01 -6.6819907046e-01
1304 1.4556124780e+00 -1.4249858571e+00 2.2312280871e-01 1.4166012391e-02 -2.4834295970e-01 5.7703554957e-01
1305 -9.3154558589e-02 -9.1946354115e-02 -2.7615231292e-01 -2.6365537051e-01 2.6606021372e-01 -6.2267845769e-01
1306 1.3939614566e+00 5.1350822829e-01 1.1736318537e+00 -6.1983959537e-01 -6.5519272387e-01 -9.3528065333e-02
1307 1.2930824529e+00 8.9331006498e-01 -9.4137113601e-01 1.0771109369e+00 4.3403771967e-01 4.6009078003e-01
1308 2.3909781554e-01 1.9554301091e+00 -2.9539199436e-01 2.0255737709e-01 1.6845603527e-01 1.2639530008e-01
1309 9.8300063399e-01 1.7845775364e+00 1.0673366246e+00 6.4086352359e-01 -3.8741943362e-01 4.3128614690e-01
1310 8.3511366182e-01 -9.4821071550e-01 8.9617728434e-01 -2.1771503301e-01 -1.4621916272e-01 1.1526844176e+00
1311 -5.2236446048e-01 2.3197399294e-01 -4.4507800763e-01 6.5033000017e-01 -2.6158316456e-01 1.4226343025e-01
1312 -7.7317527332e-02 1.0523659722e+00 -6.0489186463e-02 -8.5797321331e-01 -5.1633540576e-01 2.3776816783e-01
1313 -8.5066196988e-01 -5.7630496288e-01 -2.2741184827e-01 -1.0296800850e+00 3.7342367283e-01 -2.1637875086e-01
1314 9.6866725256e-01 -6.0136645550e-01 1.1527245509e-01 -2.2594487428e-01 1.7819231220e-01 -5.0839112128e-01
1315 -1.0522752588e+00 3.8214167475e-01 -6.1880634208e-01 2.8501269688e-01 7.5340418128e-01 3.0430334928e-01
1316 -2.7730945874e-01 -5.3311694228e-01 3.0567874480e-01 1.1021144610e+00 2.6804252292e-01 3.9720642399e-02
1317 7.7075853348e-01 -1.0532083443e+00 8.7394983802e-01 1.1446460179e+00 6.6464019715e-01 -4.2026891532e-01
1318 8.6268242634e-01 -3.8945190276e-01 1.2164764901e-01 -2.9776834827e-01 -3.9327470584e-01 2.9379018601e-01
1319 9.0906535209e-01 -1.4341437250e+00 1.8523361002e+00 5.8006407397e-01 5.0387277158e-01 1.1123861823e+00
1320 -7.7032694769e-01 2.8000149710e-01 -1.0033516802e+00 -3.0150749322e-01 -1.1359475775e-02 3.1879471946e-01
1321 2.3406863795e+00 -4.8257604175e-01 1.8261383001e-01 5.2689253708e-01 3.8443983172e-01 3.1234939568e-02
1322 -5.3649325745e-01 -1.1293596483e+00 2.8203626285e-01 6.0774143122e-02 -1.4829015642e-02 -4.6291680536e-01
1323 -1.1536524701e+00 -5.4855003585e-01 1.6544021515e-01 3.0463091140e-01 -1.1119545093e-01 7.3375903912e-01
1324 -1.6846368697e-01 -2.1161508309e+00 8.3336855811e-01 5.2653627276e-01 -1.3301492225e+00 -1.4127857872e+00
1325 -1.0412980740e+00 -6.5715772479e-01 -1.6978867379e-01 -4.4869730415e-01 7.6408580449e-01 -2.4866152563e-01
1326 1.9789575775e+00 -1.1573838958e+00 6.5754348945e-01 -7.4516186377e-01 -7.3026274470e-01 7.4241142618e-01
1327 1.9449827252e+00 2.5779917898e-01 -3.0658642285e-01 -7.4828224600e-01 -1.1379769037e+00 1.6027244828e-01
1328 -1.0493092903e+00 -1.9345109151e-01 2.8662652249e-01 8.4778125571e-02 2.6902469503e-01 -5.6035472608e-02
1329 -9.3982648079e-01 4.4280335130e-02 2.0536646842e-01 1.6736094631e-01 -3.3318309091e-01 4.6136286957e-01
1330 1.1835817721e+00 3.9734584086e-01 1.3422162412e-01 1.9069377262e-01 -1.1571436282e+00 2.8646403087e-01
1331 1.3324339072e+00 1.0575349852e+00 -1.5533010495e-01 -1.2167725845e-01 9.1692974596e-02 -5.5900977837e-01
1332 1.9426785719e+00 9.4206723282e-01 -3.2639799826e-01 7.2020215836e-01 -1.2692027862e-01 5.1536836784e-02
1333 5.8381153918e-01 -7.5836741375e-01 -5.3215076534e-02 1.1830490030e-01 2.7451144516e-01 -5.2736372778e-02
1334 7.6078518304e-01 7.5915548763e-01 -1.0288647691e-01 -5.6384808539e-01 3.9825369193e-01 3.0524072906e-01
1335 -1.5364352575e+00 1.2672881414e+00 1.5551962123e+00 -1.0138822370e+00 -2.0020691337e-01 -2.1995465102e-01
1336 -1.1397021735e+00 -7.3693536358e-01 -8.7481889029e-02 9.3224263321e-01 -6.8882349864e-01 2.4448549728e-01
1337 -2.4911164503e-02 -1.3377689284e+00 -6.6847623698e-01 7.6034380979e-01 1.4765376468e-01 -4.4416339565e-02
1338 -8.5907782441e-01 -5.6113840568e-01 3.3072986298e-01 6.3484400717e-01 2.6003442876e-01 2.9019187107e-01
1339 2.2082623029e-01 7.8705426224e-01 -1.0196179363e+00 -7.1808196370e-02 -2.7680453391e-01 4.0452632985e-02
1340 -1.7026942979e+00 -2.4145477315e+00 3.4469225925e-01 3.1975434103e-01 8.6742273973e-02 2.8656618668e-02
1341 -9.5940947806e-02 -6.5449303340e-01 1.5340430786e-01 -5.2873834522e-01 5.2810586050e-01 -3.0833429218e-01
1342 -1.0843104882e+00 4.2911492551e-01 2.0142667437e-01 1.0629948218e-01 3.7713304475e-02 -1.9595801850e-01
1343 -5.8867547283e-01 -3.9056850366e-01 -3.6062687688e-01 1.1910134566e-02 4.3876728416e-02 -1.0146077362e+00
1344 -6.6631804725e-02 1.2168897636e-01 6.6824451581e-01 -4.1981989987e-01 -1.9221192062e-01 3.8717321469e-02
1345 -1.4467964885e+00 -1.0393130955e-01 4.0246579051e-01 8.9821019306e-02 -5.0169779651e-02 -6.6332539777e-01
1346 1.2872156533e+00 9.5375131712e-01 4.4596831851e-01 -5.7901413438e-01 -8.1489216740e-01 -4.0259215043e-01
1347 -4.6245355865e-02 -6.3195115375e-01 -9.0266717049e-01 2.4624124770e-01 2.7937117824e-01 -5.6778782402e-01
1348 -5.4912845684e-01 -6.2793229106e-01 -1.0131520605e+00 -2.5487083137e-02 2.4999228929e-01 -6.0719573359e-01
1349 -6.4975679333e-01 1.2833369463e+00 -1.2662583737e+00 1.2322762765e-01 -4.3744734872e-02 -3.7929948414e-01
1350 7.1451543629e-02 7.9044804479e-01 -4.0854981628e-01 2.7642892678e-01 1.7862452027e-01 7.9387432158e-01
1351 -1.7917767571e-01 5.0023638541e-02 2.5864069107e-01 5.3209590690e-01 -1.2694210436e-01 1.4170688878e-01
1352 -9.4425826807e-01 -1.0001667243e+00 8.5467467324e-01 3.3656955412e-01 2.4313911744e-01 -3.5228722553e-01
1353 4.5420867043e-01 1.7039515003e+00 -4.2359602491e-02 6.5483874786e-02 -4.0742128500e-02 1.4505689792e-01
1354 3.4363614462e-02 -1.0213439476e-01 7.6636196002e-01 -1.5923433335e-01 5.9020617063e-02 -1.6066647986e-01
1355 -1.1771986751e-01 7.1052972622e-02 6.7361538608e-01 -2.3185743695e-01 1.2825563514e-03 -1.2259149165e-02
1356 3.3113191714e-01 -6.4303412067e-01 3.4009886563e-01 -2.5084668521e-01 -9.2441186401e-01 -2.8965300984e-01
1357 1.1243709979e+00 -8.7045060120e-01 -1.3765358651e+00 -1.7310327992e-01 4.9702887443e-02 2.9385646119e-01
1358 -9.3570695241e-01 1.5623642384e+00 -1.2469696182e+00 8.5104695005e-02 1.0779288404e+00 -7.1180697460e-01
1359 -4.4265508249e-01 -1.3166616815e+00 4.7133969391e-01 8.6447236985e-02 -2.2982852236e-01 -3.2630729259e-01
1360 -9.9838740183e-01 2.5936957852e-02 -2.8717498896e-01 2.6023367494e-01 -1.2929463776e-02 5.6238375542e-01
1361 6.8762658716e-01 1.6325288175e+00 1.6736224884e-01 6.5784946067e-01 7.9780963036e-03 4.6408343946e-01
1362 7.8100111060e-01 -2.2638696024e-01 -1.3045456426e+00 -3.2693214334e-01 4.0837373083e-01 -3.2404766222e-01
1363 -1.9806583387e+00 1.2035092765e+00 -1.1076521010e+00 4.3526454299e-01 -4.9687945820e-02 -1.3375322719e-01
1364 1.3741329932e-02 -4.8913773515e-01 7.2213642254e-01 1.9278301434e-01 9.7124938118e-02 7.5430541186e-02
1365 9.2081049281e-01 1.2050004099e+00 -3.5301594682e-01 -4.6056279841e-01 5.0225253120e-01 1.5995750256e-01
1366 1.4044897144e+00 -3.6653357321e-01 -5.6474633393e-01 2.4668452961e-01 4.0454558533e-01 1.1287223056e-01
1367 -5.4432498337e-01 -4.0162898195e-01 9.2992558636e-01 1.2559231642e-01 -2.0524319566e-01 -1.1601753728e-01
1368 -3.4778054580e-02 -4.8850983680e-01 6.1106340015e-01 1.3047677808e-01 5.5155413256e-01 -2.3022769879e-01
1369 7.2197901135e-01 -2.7462554270e-01 4.3822518053e-01 -3.8277614034e-01 -5.1787101684e-01 -2.3832969983e-01
1370 6.7759230680e-02 -4.7331941291e-01 8.7559971831e-01 -4.9384701915e-01 -4.8130763057e-01 -2.3255006285e-01
1371 -3.7370576930e-01 -1.6135552536e+00 -5.0961829099e-01 1.5611272619e-01 -1.5891778639e-01 1.9249461818e-01
1372 -1.0904340644e+00 -7.5851964548e-01 1.7969696646e+00 4.2376056083e-01 -3.7443647424e-01 -3.1667710810e-01
1373 1.5804618072e+00 1.0111064594e+00 -2.3765958695e+00 9.2187558986e-02 3.2435466597e-02 -8.6949692777e-02
1374 -6.6363946613e-01 9.0539397259e-01 -4.3905621896e-01 8.5651185852e-02 -2.6635312701e-01 7.1611677238e-01
1375 3.7713658355e-01 9.7068396109e-01 3.1443107389e-01 -3.1729849256e-01 -1.5967920934e-01 -2.6659949092e-01
1376 -1.3825864236e+00 2.5714995234e+00 1.2988397727e+00 1.4269212944e-02 -1.6964408906e-02 3.7020067548e-01
1377 8.1857038347e-01 -2.0456423231e+00 -1.1311555897e+00 1.0454456404e-02 -1.5543231314e-01 7.3947328297e-02
1378 -4.6876713782e-01 -1.8448228154e+00 -1.9688358440e+00 -1.9771152270e-01 -7.1301376252e-01 -2.5680900315e-01
1379 2.8626984925e-01 -3.7660248553e-01 6.0125203748e-02 2.2844630233e-01 -6.3019023311e-01 -1.8155124800e-01
1380 -2.5822074208e+00 5.9457223997e-01 -1.1309159393e+00 2.2944931054e-01 2.6400771779e-01 1.2464717141e-01
1381 4.2569351242e-01 -3.3658307668e-01 -1.6116022085e+00 2.6653305978e-02 2.4250361739e-01 -1.9034384771e-02
1382 -4.9506768005e-01 1.0122568809e-01 1.0751847730e+00 -7.1299110033e-01 -1.2843654973e-01 4.4369460654e-01
1383 7.8096267358e-01 9.1361129195e-01 -1.2379598732e+00 5.5724626934e-01 -1.9421337427e-01 -2.0777843854e-01
1384 -3.2315389485e-01 9.6514525482e-01 -1.6074217799e+00 -2.9248330111e-01 1.8915835395e-01 1.3615253039e-02
1385 -4.2873173254e-01 -1.1234820296e+00 4.0400193051e-01 -1.9817053252e-01 9.5091219308e-01 3.5362834115e-01
1386 -3.8692190179e-01 -7.7601897748e-01 3.9296326664e-01 -2.6915581576e-01 -1.0988550366e-01 -2.4622305581e-01
1387 -2.9568066784e-01 -9.7538686506e-01 1.5779757996e+00 -2.1200054241e-01 -1.9624131130e-01 3.4228663874e-01
1388 5.7887504293e-01 -5.1673223047e-01 -9.2346394777e-01 2.9174063982e-02 2.3808437652e-01 1.6120901878e-01
1389 2.9771801583e-01 -2.6275288416e-01 4.6627494788e-01 -9.6306782575e-01 -5.9656793876e-01 6.3165117599e-01
1390 -1.6162431780e-01 -1.6051404891e+00 1.1873496129e+00 -8.8566550831e-02 -1.5220297611e-01 7.1183833694e-02
1391 -1.3459676602e+00 1.2356729556e+00 -5.4098712166e-01 -1.1567265198e+00 1.9935657572e-01 5.0583811287e-02
1392 -7.1123529555e-01 -7.1681129861e-01 -4.6712562618e-01 4.1595526517e-01 7.9206968262e-01 4.5074316273e-01
1393 -1.1360766865e-01 3.8643081015e-01 -5.7217816070e-01 6.1959920757e-01 -2.7908139038e-01 -3.1171683563e-01
1394 -7.7289718322e-02 -4.8129109159e-01 -8.7377083806e-01 3.3360356219e-01 2.4877210890e-01 5.2262285589e-01
1395 -5.5581567928e-02 2.6618796200e-01 5.6282061417e-02 4.7244976278e-01 -2.0139213509e-02 1.7485838323e-01
1396 -2.5186846048e-01 1.2636737387e+00 -4.2802375710e-01 4.4723305090e-01 2.7762508689e-02 -9.1938426055e-01
1397 -1.6197474262e-01 -1.7696113426e+00 7.3727194344e-02 -1.0564955283e-01 -4.0296482187e-02 -1.2437121918e-01
1398 1.7107466560e-01 -4.4675394858e-01 1.0364346879e+00 8.5853464997e-01 4.8083169892e-01 6.9231140992e-01
1399 -1.4961109318e+00 -8.2464357626e-02 -1.1710037275e+00 9.7836579889e-01 6.9799732214e-01 -6.1687525797e-01
1400 9.8034608109e-02 8.7291838702e-01 1.6878186725e+00 1.5552784562e-02 9.7073466848e-02 -5.4493172525e-02
1401 -5.4366588374e-01 5.0771320779e-01 3.6390384524e-01 8.7119035199e-02 4.9763715807e-02 3.3617877432e-01
1402 -5.0114876141e-01 1.0353899076e+00 -1.3376606708e-02 -4.6250563993e-01 1.0457225524e+00 8.4862390083e-01
1403 -1.4806691181e-01 -7.8019975095e-01 -1.3440513911e+00 5.6208712909e-01 5.4932338995e-01 -2.0146410240e-01
1404 7.6587598392e-01 7.6969604235e-01 5.0209136600e-01 6.0622562994e-01 3.7165646996e-01 7.1263483892e-02
1405 4.6752046378e-01 6.1681555924e-01 7.8339873942e-01 1.0987772161e+00 7.2961798541e-01 4.0403936905e-01
1406 1.4432221649e+00 -8.6598040531e-01 -1.2466194781e+00 -3.3424378562e-01 -1.6988355046e-01 -2.2243171674e-01
1407 -1.5075500544e+00 -5.2229101130e-01 5.4187732275e-01 3.3853931669e-01 -7.3016188029e-02 -6.1249614368e-01
1408 1.8029516793e+00 -7.7005184061e-01 1.3762529526e+00 -5.9103407852e-02 -2.6416282901e-01 1.9787216899e-01
1409 6.4693795702e-01 -9.9058786124e-01 -6.4738065842e-01 8.1463864545e-02 -1.1483053341e+00 6.5911443647e-01
1410 4.4708705757e-02 -2.3333597979e+00 2.7613455906e-01 3.7237044624e-01 1.0193977356e-01 1.2585838541e-03
1411 -5.6168026966e-01 -1.5580055103e+00 9.5674037897e-02 -5.5125261322e-02 3.1325014307e-01 -4.8821431224e-01
1412 5.4593551318e-01 3.5893650563e-01 -3.9736181725e-01 1.4309937761e-01 5.3293283808e-01 5.4771283906e-02
1413 8.7399445776e-01 1.6050407620e+00 3.0738508903e-01 1.2022568060e-01 3.4155009752e-01 -1.6391291977e-01
1414 6.3023782554e-01 1.0358010471e-01 7.2156034319e-02 5.9565611145e-02 1.8056054015e-01 4.0268971719e-01
1415 -1.0008571806e-01 -1.6257527830e+00 6.4402604031e-02 -1.2136519074e+00 4.3509041671e-01 -2.9175719266e-01
1416 2.4165662385e-01 2.6902247585e-01 -5.1337446025e-01 5.4708255112e-01 -1.0863124591e-01 -5.0238155825e-01
1417 2.2512647727e-02 2.0012327390e+00 1.5859035990e+00 -5.1445061009e-01 1.5846859692e-01 -4.6907591014e-02
1418 4.9814213965e-01 3.0508949736e-01 3.9131784957e-01 -4.3940696392e-02 3.9593300252e-02 -1.3316430903e-01
1419 1.4037156733e+00 7.3311478773e-01 1.6721624726e+00 -6.4426558173e-01 1.3757606244e-02 2.4973567250e-01
1420 1.0500197475e-01 6.1251848871e-02 2.0304506202e-01 -7.6404114551e-01 -4.9695581816e-01 -1.4027344693e+00
1421 2.9646747666e-01 2.5754518134e+00 -7.5159920299e-01 -1.0919750920e+00 1.2251474140e+00 -2.4404175605e-02
1422 7.3351243326e-01 5.4677456351e-01 1.3762225367e+00 -6.4348214036e-02 -4.1226303259e-02 -5.3572297637e-02
1423 5.3683494267e-01 -6.7846771453e-01 -1.1175991017e+00 -2.7581693317e-02 -2.9127316700e-01 1.2674389624e-01
1424 -1.2883678837e+00 8.2954743428e-02 1.3613281004e+00 2.8272912966e-01 7.4173141884e-01 -4.1552601022e-01
1425 5.7533804224e-01 -9.7439549249e-01 -8.8694226865e-01 4.6712699185e-01 -1.0459430597e-01 -4.7488670987e-01
1426 1.1413766336e+00 1.5328813864e+00 -8.4114254073e-01 7.6106822305e-01 -9.8923056780e-02 7.7284206021e-01
1427 -8.1391200717e-01 -1.0252580410e+00 -1.3091557728e+00 2.7010603674e-01 3.2043109561e-01 -3.6958289115e-01
1428 -2.9412994346e-01 -5.0651860697e-02 4.0479853729e-01 4.2282513536e-01 -4.0789074780e-01 1.0115244149e+00
1429 -1.1884998917e+00 -4.0140847516e-02 8.7705189229e-01 4.2428704738e-01 -5.8130387482e-01 2.6604876798e-01
1430 1.0032981679e+00 1.1858896727e+00 5.6433281028e-03 -1.4738414813e-01 9.3169134422e-01 7.6717106453e-01
1431 -1.2941829587e+00 6.7380077915e-01 -1.1887749289e+00 3.0537662648e-02 -1.0313728127e-01 1.0586847511e+00
1432 1.2090782324e+00 -7.3555840200e-01 -6.5973901739e-01 -2.7056895722e-01 6.4172886001e-01 1.2012948941e-01
1433 -2.5680549728e-01 -3.3870815489e-01 -4.7837382594e-01 -2.0214332179e-01 -6.1983400796e-01 3.5597145466e-01
1434 1.5241147623e+00 2.3493616042e-02 1.1294402036e+00 -6.4239114133e-01 4.9650569033e-02 8.4648206415e-01
1435 1.5577304593e-01 8.0538500216e-01 -1.2959875944e+00 -1.0660866548e-01 -3.8605695496e-01 -5.3850270684e-01
1436 -5.0699459129e-01 8.5319015163e-01 -2.5111252597e-01 5.8389977052e-01 -9.3034068942e-01 7.4820007423e-02
1437 -2.5846582379e-01 -1.2655376792e+00 1.6196127171e-01 -8.0763753232e-01 5.0639276982e-01 5.8369783894e-01
1438 -1.0326401622e+00 4.3261489660e-01 -1.1217576439e+00 -2.2203703955e-01 -2.3857666074e-01 2.8309278211e-01
1439 1.5610023267e-02 6.9892302834e-01 -1.3869484889e+00 -5.5381430246e-01 2.7943548996e-01 -4.8045355439e-01
1440 4.8108806937e-01 -8.7003033833e-01 -4.4396164335e-01 -1.2409054179e-01 -2.7520452979e-01 2.1547909750e-01
1441 -1.5701438465e-01 1.5462722236e+00 -4.9246815913e-01 -3.0911215290e-01 -1.5930843605e-01 -8.6201969934e-01
1442 -3.0667239891e-01 7.2814795981e-01 -5.7702846493e-01 -1.5479554722e-02 3.1423845148e-01 4.1651323724e-02
1443 -1.2571655513e-01 9.9718570441e-01 -7.7027419544e-01 9.1726428579e-04 7.0590484065e-03 1.1945411166e-01
1444 -9.3416981120e-01 -1.8439468475e+00 1.0256084312e+00 5.7249521082e-01 3.4120012535e-01 -8.5498232554e-02
1445 -5.4448291095e-01 2.4393020023e+00 -6.3614036307e-01 3.6253987288e-01 6.7469144563e-01 2.7984896754e-01
1446 1.6019119313e-01 -9.3443978291e-01 3.1369542241e-01 -5.5485040966e-01 2.1436110278e-01 -5.6907863142e-04
1447 -1.6025359380e+00 1.4048129863e+00 -6.8058929885e-01 -7.6680310534e-01 5.4492940856e-01 6.2150089906e-01
1448 1.7296677499e+00 -3.1188323973e-01 -7.8512527881e-01 9.0995798226e-02 -1.3469550310e-01 2.4944914499e-01
1449 5.7755598476e-03 1.5427793900e+00 2.4566540271e-01 -2.1720246521e-01 -9.2034754258e-03 2.3614559548e-01
1450 -1.1855704236e+00 5.1789529580e-02 -4.4487905816e-01 1.0017582444e+00 -3.8817617889e-01 4.3525709024e-01
1451 -1.8502751480e+00 4.1675667762e-01 1.8851441667e+00 1.4299553187e-01 -6.3606853008e-01 -2.9510497749e-01
1452 -2.2714108969e+00 -4.4667587405e-01 -1.1058071990e+00 3.1220710189e-01 -7.6984173912e-01 1.4240334331e-01
1453 5.7753192653e-02 7.6831699266e-02 3.4373045976e-01 -3.0422476209e-01 -1.9596114111e-01 -7.0376101393e-01
1454 -3.6409906370e-01 6.9028274451e-01 1.1597458922e+00 1.0725501421e-01 -2.0433599026e-01 -4.0650672140e-02
1455 6.2791051979e-01 -6.5176394463e-01 -3.1299918828e-01 5.4079602468e-01 -3.1403494954e-01 -1.3503198737e-01
1456 -9.6714638535e-01 5.5817548913e-01 2.2143667753e-01 1.8400833908e-01 -6.5061425118e-01 -8.6680817912e-01
1457 6.0133927751e-01 9.1061452343e-01 6.8074853430e-01 -4.7457524143e-01 2.6051608337e-01 2.9143599948e-01
1458 -5.0186518088e-01 -1.4147780442e+00 -2.1866788976e+00 -3.3512130571e-01 -4.2240070768e-01 -4.8569751739e-02
1459 1.4251246278e+00 9.1222126768e-01 1.1062976092e+00 2.8584563718e-01 2.4132716588e-01 -5.2681357724e-02
1460 -1.3696189741e-01 -3.7698331115e-01 -8.4609364106e-01 -1.9540273272e-01 -1.8391401694e-01 3.1532303523e-01
1461 8.9087524213e-01 7.4772986097e-01 -4.1858356984e-01 3.9603159441e-01 -1.3595897274e-01 -2.4692431491e-01
1462 1.0590328924e+00 -2.7056949756e-01 -1.2319969758e+00 -2.6066752440e-01 -3.4167675870e-01 8.3225448756e-01
1463 9.7896685978e-01 -1.8261013603e+00 7.3760998591e-01 -1.8282812183e-01 1.5675536592e-01 2.7615758820e-01
1464 -5.0011927239e-01 5.6456955448e-01 -2.1421926867e+00 7.0333237131e-01 -3.7986348945e-01 5.2375515290e-02
1465 -2.3406702883e-01 1.9279527532e+00 -4.5755332035e-01 -1.9378019478e-01 4.6329409993e-01 2.8987147712e-01
1466 -4.0086822484e-01 2.7630756783e-01 9.0920078149e-01 -2.4429754141e-02 3.0129961476e-01 6.1365329765e-01
1467 -1.0911085014e-01 -7.2757408510e-01 -2.1490659124e-01 -1.7865317845e-01 -1.2070090939e-02 1.3963781576e-01
1468 -6.1664841866e-02 -2.1583353168e+00 -1.5161685260e+00 8.7136625922e-02 -4.5140472759e-02 2.8602399348e-01
1469 -1.0592997804e+00 4.0714250565e-02 6.8919050627e-01 -1.3228940651e-02 5.1744422507e-02 5.2099538741e-02
1470 5.8258929797e-01 -4.0679891547e-01 9.4113181928e-01 -2.6379090534e-01 -2.1959847716e-01 -5.2247786284e-01
1471 9.5031182795e-01 -1.1615620994e+00 -5.2482419721e-01 3.2606328851e-02 5.1161443981e-02 -3.4536002347e-01
1472 -2.2506591654e+00 2.2437156667e-01 -1.1228522901e+00 2.3874289925e-01 2.6017941000e-01 -2.7130368316e-01
1473 -1.2077510015e+00 -1.2930315934e-01 -2.8258737174e-01 4.0875317175e-01 -2.9400367962e-04 -3.5896399674e-01
1474 -1.3766376446e+00 -3.2559956296e-01 3.2314060522e-01 -1.8235792076e-01 -2.0472062388e-01 -5.5388805498e-02
1475 3.6983089375e-02 5.7125843562e-01 -1.2399625512e-01 -2.7975506905e-01 -1.0293402213e+00 1.0664305749e+00
1476 4.5603024858e-01 -1.3805238001e+00 2.5928899275e-01 -7.9314478195e-02 3.2912976861e-01 3.0268680044e-01
1477 -1.4980855112e+00 -1.6282155842e-01 -1.4438695087e+00 7.0263559450e-01 -3.1217982099e-01 -3.1116509734e-02
1478 1.5730633224e-01 7.2906281106e-01 -2.1983329839e+00 4.3011461569e-01 -7.8169911937e-01 -6.5108486060e-02
1479 -1.0996932110e+00 5.3223395730e-03 -5.6519134462e-02 5.2380212649e-01 -1.8049107849e-01 -1.2956675877e-01
1480 1.2452377340e+00 1.8417500154e-01 4.4124706491e-01 -4.7932376680e-01 7.1970001353e-01 -6.2039002316e-02
1481 -1.0154761240e+00 -1.1368942605e+00 3.8979205436e-01 -1.1577443070e-01 -6.7999905687e-02 2.1631729908e-01
1482 9.4616724322e-01 1.5409560026e+00 -8.0307741446e-01 3.7799676796e-01 -3.6654396034e-02 6.5275386128e-03
1483 1.0859758959e+00 -1.2361397701e-01 1.3282875526e+00 -5.1545104363e-01 6.3862300111e-01 -1.6807087910e-01
1484 2.4102393295e+00 1.4914169368e+00 1.9276205964e+00 -4.0154173852e-02 -6.1337775099e-02 8.6749238473e-01
1485 -8.2573487406e-02 -7.0995272945e-01 -3.6620954517e-01 -3.1704611728e-01 -2.3497108997e-01 -7.1100805851e-01
1486 1.0276113044e+00 -4.7646340427e-02 -1.2187172635e+00 -8.7762502085e-01 9.7516076759e-01 1.1720114414e+00
1487 5.6113947999e-01 -1.2978262713e-01 -5.8834713942e-01 1.0157583328e-01 -6.2135124680e-02 2.7923875988e-02
1488 -3.0203418124e+00 -1.5900182654e+00 5.1085973387e-01 -7.7217987129e-01 -3.9675423909e-01 -9.2699440915e-01
1489 7.1726461865e-02 4.9405329099e-01 7.0563869061e-01 -3.8972202602e-01 1.4481779018e-01 -1.6147216664e-01
1490 3.4259411331e-01 5.7358438120e-01 1.1376046682e+00 1.6338661838e-01 2.2442303607e-01 -1.4034911804e-01
1491 2.1308472483e-01 1.7645099479e+00 4.9373111738e-01 -4.1341674276e-02 -3.1033727612e-01 2.5222302355e-01
1492 -2.5258729636e-01 5.9392149329e-01 1.4070404846e+00 -4.3328386060e-01 -1.4280591231e-01 -3.2289975592e-01
1493 -9.0293745965e-01 -7.6526802287e-01 5.2125793263e-02 1.1814544405e-01 4.3139960366e-02 -2.1960906862e-01
1494 9.7629636893e-01 -1.1922317260e+00 -8.5129299461e-01 -6.3952153871e-01 4.0844394020e-01 -1.5935037615e-01
1495 4.0694855496e-01 -1.3119627526e-01 1.4422661371e+00 6.9158880309e-02 -1.3110127783e-01 1.7453100377e-01
1496 2.3373696797e-01 -2.1634138717e+00 -6.5020271906e-01 1.2026723251e-01 1.2466220714e-02 1.4511959683e+00
1497 1.4625517924e-01 -5.9417257710e-01 -1.7975923956e+00 2.7770058076e-01 2.6772818963e-01 5.9388734042e-02
1498 -5.7717928471e-01 4.3458111944e-01 9.9581354997e-01 -8.8850449994e-02 -4.0175837686e-02 -1.9964300600e-01
1499 -1.1944151307e+00 -1.2376360071e+00 -1.9107534307e+00 4.1834515024e-02 4.9522121721e-01 -3.9426372111e-01
1500 4.9070113650e-01 -1.7041260184e-01 -1.7977148449e-01 3.7987842356e-01 -1.9669276710e-01 -4.7444699669e-01
1501 -9.6080155918e-02 1.5813983213e+00 -1.6496700674e+00 8.8386347241e-02 8.9865320187e-01 3.6768837681e-02
1502 6.1398028978e-02 -4.1390978703e-01 -4.2959951888e-01 -2.4839141938e-01 -4.0280754191e-01 2.0045712314e-01
1503 -4.6663821387e-01 1.4728594540e+00 -3.5235526956e-02 6.8220504575e-01 8.9019264966e-01 4.5457626950e-02
1504 -6.6784806828e-01 -6.9214188294e-01 5.5121057495e-01 2.7458622596e-01 -5.3981171322e-01 4.2787409451e-01
1505 -7.4109631694e-01 -6.2081587992e-01 2.0587516448e+00 -7.8043129334e-03 -8.6282015079e-01 -3.2566392669e-01
1506 -1.4286900204e+00 -2.0086651449e+00 -6.3448259411e-02 -2.6273664988e-01 -8.5275999266e-02 -2.1352717936e-01
1507 1.5718264772e-01 2.0522623516e+00 1.9727851992e-01 3.7446771898e-01 -5.9958074573e-01 1.0404429208e-01
1508 6.4453246070e-01 1.9895623405e-01 -1.5023304105e-01 -5.1637661392e-01 -6.5284920122e-01 -6.2328573039e-01
1509 -9.3506718631e-01 -1.2819892930e+00 -2.6923776714e-01 1.0794756310e-01 -3.8065075173e-02 -3.7741112301e-01
1510 -1.7797313403e-01 1.3612049416e+00 8.0276920687e-01 3.0822021830e-01 -3.6338999992e-01 3.5397334479e-02
1511 -1.7632922872e+00 1.1468087141e+00 -1.7799943430e-01 -8.5971530087e-02 -3.7846239738e-01 -4.6516870450e-01
1512 -1.0847405126e+00 -2.4928191775e+00 8.4810578055e-01 -1.0533200926e-01 -2.1067149210e-01 2.5621698702e-01
1513 -8.5770071734e-01 -6.4291786948e-01 2.5006020651e+00 3.0349443209e-01 -6.2651587853e-01 -7.3850110490e-01
1514 -2.5066351751e+00 -2.9526045329e-01 -1.3584949610e-01 6.9311041838e-01 2.2285975099e-02 -4.9535995442e-01
1515 -5.7840881528e-01 1.4238848564e+00 1.0075110151e-01 -1.8867158450e-01 6.9919681765e-01 -1.0239638345e+00
1516 1.2201736640e+00 2.3280763761e-01 -3.7126491336e-01 -9.4388459814e-01 2.9432617818e-01 -2.1899611672e-01
1517 -8.0854760917e-01 1.4930042846e+00 4.5329268709e-01 -1.6718189056e-01 4.3931431824e-01 6.5430946880e-03
1518 3.5524237679e-01 1.3608680926e-01 -1.1079097829e+00 -6.7188917670e-01 3.2551896972e-01 1.3141774064e-01
1519 -1.7668226047e+00 4.6346127026e-01 5.1305878040e-01 -3.1790444427e-01 -1.7017563621e-01 -3.0475981848e-01
1520 -1.5780356179e+00 -5.6798222271e-01 7.2668012322e-01 2.0980569787e-02 1.7301173010e-01 -1.2732929644e-01
1521 4.9213264150e-01 1.1387401834e+00 -9.4606336418e-01 -4.0699555769e-01 -3.9157624799e-01 5.0805416183e-02
1522 -6.5559434481e-02 1.7272234438e-01 9.2653465430e-01 4.2494111494e-02 -2.5297858318e-01 -4.2896993114e-01
1523 1.0508687565e+00 1.8294296932e+00 -2.0890077724e-02 -1.9845946441e-01 2.3184416658e-01 1.0933417476e-01
1524 -4.8619843508e-01 1.4019219935e+00 7.2673788335e-03 -6.5724412223e-02 -4.6570315001e-01 2.5183547619e-01
1525 -6.0375991570e-01 7.6681452157e-01 -4.4970280540e-01 1.1581421403e-01 -1.7097360055e-01 -2.9153696314e-02
1526 9.8542175074e-01 4.0882573864e-01 1.0666749674e+00 3.7839730600e-01 -9.3744039467e-01 -4.2246165199e-01
1527 5.1692663834e-01 5.9525315875e-01 -1.2820597171e+00 1.9545228592e-01 -2.3392463773e-01 2.7171360684e-01
1528 6.0537385833e-01 -3.1669039456e-02 8.6960144105e-01 -7.4061689856e-01 2.0537512590e-01 -8.4689263833e-02
1529 -3.5303207158e-02 -1.2008969760e+00 -3.7686325704e-01 8.9007115307e-01 -1.4332177273e-01 -1.0643561158e-01
1530 2.0559630393e+00 -1.4799913608e-02 -1.2394180667e+00 -6.1506101001e-02 -4.7162373506e-01 -2.3354506424e-02
1531 4.2013165080e-01 1.9804333705e+00 6.8244998888e-01 -2.6988896111e-01 6.0445425968e-04 1.9367447610e-01
1532 -7.4689125631e-01 6.8738827309e-01 8.3771422521e-01 -2.2253484265e-01 -1.3349379049e-01 -3.7457451595e-01
1533 -1.2141125077e+00 8.3449397616e-01 4.2625300596e-01 1.0827814993e-01 1.6337187240e-01 6.0109297904e-02
1534 4.6605805644e-01 6.0375447847e-01 -1.2396908170e+00 4.3036243145e-01 3.2688490177e-01 -9.7825753490e-01
1535 2.2242021571e+00 -1.9530897170e+00 -1.5808364759e+00 -4.5166254891e-01 2.4233808342e-01 -5.8153092601e-01
1536 7.1197130044e-01 -1.6853348048e+00 -7.3030682298e-01 4.4148512662e-01 8.0176981266e-01 -1.6170722771e-01
1537 1.3290630602e-01 2.5128280738e-01 -5.1865548452e-01 -4.2921325107e-01 3.5208836894e-01 -1.2724994469e-03
1538 -1.0997051520e+00 -1.5403722285e-01 -1.0300322597e+00 2.8063590358e-01 1.1043430493e-01 8.2395063728e-01
1539 -1.0765296954e+00 7.7567813935e-01 -1.4940826918e+00 -9.3028643660e-02 -7.0488924655e-01 -6.5684609875e-02
1540 2.2255697747e-01 7.7799999926e-01 6.1871340986e-01 -2.6511093773e-02 9.7376617406e-02 -2.1581973117e-01
1541 -6.4875675396e-01 -1.9605831619e+00 1.0431994080e-01 -5.4245857908e-02 1.2729169982e-02 -2.3431743495e-01
1542 -3.2989831304e-01 -1.8083491261e+00 7.6557922078e-01 6.1043917813e-01 -8.4008302469e-01 -3.3337734032e-01
1543 3.7805308743e-02 -8.0082924970e-01 -2.3772440007e-01 -5.6444563702e-01 -3.2577825153e-01 -1.2451559610e+00
1544 9.5771499319e-01 -2.1032620345e-01 1.1688355147e+00 2.5032129157e-02 6.4657021172e-03 -9.4231371959e-02
1545 -2.9864113424e-01 9.5538490370e-01 9.6225907925e-01 -2.9468917648e-01 3.8475828852e-01 7.2432768690e-01
1546 -7.4494148892e-01 7.6737079342e-02 1.2773663006e+00 6.8506393173e-01 2.1524393659e-01 6.8928303454e-01
1547 -1.7871435510e+00 -5.9901168287e-01 4.5772246088e-01 1.2280280271e-02 -1.1262391337e-01 -3.8057165520e-01
1548 -2.0085492146e+00 -1.7323528105e+00 -4.9786923453e-01 -1.2801772142e-01 2.7834673079e-01 -2.1347750331e-01
1549 1.3224610492e+00 -2.7904447898e-01 7.9996321035e-01 -1.8446142204e-01 1.7735556696e-01 2.9949844179e-04
1550 -7.6769763227e-01 -6.1645873223e-01 1.1172048323e+00 4.0090970561e-01 -3.0771919784e-01 6.0980432251e-01
1551 -6.7573183884e-01 1.9389147120e+00 1.5947180127e+00 1.7057310945e-01 9.8911620850e-03 3.5161795061e-01
1552 2.1288419271e-01 -2.0046492513e+00 1.5324697280e+00 -5.2507178475e-01 7.2643116519e-01 -5.4028699790e-01
1553 7.2524565746e-01 8.8613081699e-01 1.8030172316e+00 -8.6885074063e-03 -4.0191824488e-02 -3.3389149169e-01
1554 2.9078815061e-01 1.2596768658e+00 -3.9826618971e-01 5.9995014942e-02 -4.2171153897e-01 -5.4025609473e-01
1555 5.4434124954e-03 -2.1033580441e-01 -1.8444285756e+00 -2.6429660646e-02 4.9741893393e-01 5.5954383192e-01
1556 -6.1376750325e-01 -1.9571905124e-01 2.9520444214e-01 -3.0673545811e-01 5.1553588032e-01 -6.3414326190e-02
1557 9.8686713587e-01 1.3748549136e+00 -1.5254611503e+00 1.8344657316e-02 -1.1859446008e-01 -1.5739692277e-01
1558 8.7784648199e-01 8.5311925619e-01 -7.0164037238e-02 -9.3103984198e-01 3.4868271516e-01 4.9373874735e-01
1559 -8.5702655510e-01 -1.1347508079e+00 -9.3331053365e-01 6.1352948028e-01 4.6948533030e-01 -3.6896289391e-01
1560 5.0327916406e-01 -1.1251063421e+00 2.3438663898e+00 6.9643301281e-01 -3.1138947487e-01 -1.3925832896e+00
1561 -5.7922708927e-01 2.8067967676e-02 -2.7793346074e-01 7.2444778137e-01 -8.6073803423e-01 -9.8781080416e-01
1562 2.3241321898e-02 1.3287958404e+00 2.7939539033e-01 9.8455906991e-02 -7.1208602087e-02 -2.4229021319e-01
1563 -1.6316393716e-04 1.6591439652e+00 3.7677444905e-01 1.0302289056e+00 4.8979159355e-01 -7.0461701851e-02
1564 -3.3464692632e-01 9.5620955949e-02 -1.8744803707e+00 7.5725640086e-02 -2.2531396267e-01 -4.2776879047e-01
1565 -9.7755789176e-01 3.2745631552e-03 1.1187568696e+00 -1.9138952528e-01 -4.2803410111e-01 -4.0566145635e-02
1566 1.0792595509e+00 1.1565134624e+00 3.0342581699e-01 -6.8071712416e-01 4.5530135172e-01 -6.3847452313e-01
1567 -2.5352612654e-01 -8.8589557448e-01 8.6657740504e-01 -6.4166130975e-01 -5.9685449031e-01 7.8065403693e-01
1568 -8.8044942987e-01 -9.9420928024e-01 8.0576796226e-02 -6.0620131670e-01 5.6114895111e-01 4.9676798757e-01
1569 -1.2064341374e+00 -4.0411567333e-02 -1.9375811426e+00 -2.5618659769e-01 -6.0382577831e-02 -1.2015527804e-03
1570 -1.4792697332e-01 -1.2471773025e+00 1.8398059834e+00 3.2140403832e-01 8.8519194000e-02 -6.1004209706e-01
1571 2.3654121544e+00 -1.1638591237e+00 -3.2590308126e-01 1.5606150210e-01 -2.8583881228e-01 -1.9865123581e-01
1572 2.4936750702e-01 1.7182777595e-01 -2.5161645470e+00 4.0705885356e-01 1.5344051725e-01 1.1363618765e-01
1573 2.5802438748e-01 3.7008860875e-01 7.4080625370e-01 -1.6465872060e-02 -6.7514587331e-01 1.2684677173e-02
1574 1.3245779455e-01 -5.3283607711e-01 1.3484557659e+00 -6.4038832617e-01 4.6550807073e-01 5.2325654080e-02
1575 1.6915783161e+00 8.7213359562e-01 1.4084664186e+00 4.6133758576e-01 -9.2703317616e-02 2.4696380736e-01
1576 -1.2142303045e+00 4.1830897788e-01 7.7232912250e-01 -1.7167806601e-01 6.7843854745e-02 7.5066413262e-01
1577 -2.2256970664e+00 -1.6091908605e+00 1.4237857394e+00 -7.5356250116e-01 -5.8365840643e-01 1.8409631578e-01
1578 4.0571007722e-01 2.1141672853e+00 7.9625387841e-01 6.7134327992e-01 2.4503294241e-01 4.9803101274e-01
1579 9.5155326936e-01 -1.8486776397e+00 -1.1341561049e+00 -1.4266076236e-01 1.0215756275e+00 -9.5224880348e-02
1580 -1.8597905669e+00 -1.2123634646e+00 -5.8231180192e-01 4.6475825862e-02 -3.0288784644e-01 -6.7878759934e-03
1581 -6.9877823711e-01 -3.1660892293e-01 1.6227853901e+00 2.0944744735e-01 6.2502738247e-01 4.7772396201e-01
1582 -4.9540908953e-01 -2.6446952630e-01 -2.1412379075e-01 5.5272658285e-02 -4.0245694940e-01 -3.0458532555e-01
1583 2.3702263814e-01 1.2092165255e+00 -2.9864629652e-01 -3.6152953000e-02 -3.5651679694e-02 4.4404864618e-01
1584 -8.6897056102e-01 -6.1406628619e-01 -1.9365031489e+00 -4.9737283042e-01 1.1762485942e-01 -1.9410762072e-01
1585 -7.8420316487e-01 1.1951759690e+00 1.5300146262e-01 7.9471958657e-01 3.0113342375e-01 2.2890880271e-01
1586 9.6652656094e-03 -5.1770349171e-01 9.0971717681e-01 7.7498594627e-03 -7.9686378919e-01 3.8540812916e-01
1587 -1.9394958683e+00 -1.5044428770e+00 1.7680335910e+00 -7.5599146867e-01 -2.7912894639e-01 4.4609393834e-01
1588 -2.6130272809e-01 3.4092789240e-01 -6.3201280859e-01 -6.1233364310e-01 -1.3664071055e-01 -2.5212097989e-01
1589 9.6150376544e-01 -3.8601917297e-02 -9.8716634898e-01 -2.4513258496e-01 4.2088205294e-02 9.9481002206e-01
1590 2.2501536066e-01 6.0888948299e-01 -1.9295486406e-01 4.4063084550e-04 7.8540669338e-02 1.7520205009e-02
1591 -3.2007338984e-01 5.0313108064e-01 3.6466123247e-01 -1.0716491784e+00 -2.6690563585e-01 -7.2156781277e-02
1592 -5.3813905105e-03 4.4078279131e-01 -9.0072987921e-02 -2.7135389341e-01 -2.2360038217e-02 -1.3070434712e-01
1593 -1.8724928061e-01 1.9664266202e-01 3.0125391882e-01 3.7985281468e-01 -2.6286165305e-01 2.0432703574e-02
1594 -7.1544279012e-01 -1.6974165604e+00 6.7938346024e-01 3.4721245527e-02 -1.5084845162e-01 -2.1003138861e-01
1595 6.7116287192e-01 1.8096948620e-01 2.3662206398e-01 7.4684626218e-01 -2.7690115343e-01 -2.1348923878e-01
1596 5.7185397471e-01 -2.0521497377e-01 -4.1150782493e-01 2.1846781301e-01 1.5643805794e-01 4.9363235993e-01
1597 -2.3603238462e-01 -1.4122480971e+00 -5.6697844527e-01 5.0265104382e-01 8.9075431629e-01 6.1403119964e-01
1598 -7.0259587257e-01 -9.0483427042e-01 1.5120270130e-01 -1.9511240864e-01 -9.6005148395e-02 1.1092578852e+00
1599 1.7881617704e+00 8.0559387380e-01 -2.9993191435e-01 -6.1373756134e-01 6.7050094458e-03 3.8343009890e-01
1600 -3.5493728020e-01 2.5188847181e-02 -5.5013176505e-02 9.6006227319e-01 8.3501947040e-01 5.4672427777e-01
1601 2.1869595811e+00 -5.1293139288e-01 -9.6921593646e-02 -4.1984981036e-01 -9.6079639777e-03 -4.0022022510e-01
1602 2.2146277143e-01 1.2552797852e+00 3.5757246751e-01 8.9704448213e-02 -7.8647343948e-01 1.9479089974e-01
1603 2.3267040247e-01 2.7580451721e-01 8.0638682235e-01 1.2517905446e+00 -9.9599079366e-01 6.0647655905e-01
1604 7.7432782732e-02 -2.1226684637e-01 9.8189258715e-01 -7.6320281585e-01 -2.9567026486e-02 -2.3864773141e-01
1605 2.0913825819e+00 -4.3948352469e-02 4.2114475672e-01 -1.5512442574e-01 -5.4468242945e-01 -2.8714045142e-01
1606 1.5140761559e+00 6.7737400469e-01 8.2933871905e-01 4.3898421211e-01 4.3278624121e-01 -4.3229256113e-02
1607 -1.6809373543e+00 -1.8969621666e+00 -4.3682810415e-01 -7.6617576927e-02 4.3509070246e-01 1.3499454610e-01
1608 2.9366500761e-01 -1.5507714805e-01 -5.6917172057e-01 4.9455394903e-02 3.7351545536e-01 1.0106506746e-01
1609 2.3407359568e+00 -6.4220061739e-01 -7.0733388212e-01 -1.4064425391e-01 5.1913257479e-01 -1.2944550454e-01
1610 1.4082608629e+00 -5.5090329804e-01 -2.5756715800e-01 8.1740006878e-01 1.7693554232e-01 3.1479961436e-01
1611 5.7766625688e-01 3.3553844850e-01 -9.3837245102e-01 -7.7691819908e-03 -1.7036318463e-01 8.5625760383e-01
1612 -4.2402727261e-01 8.2491099688e-01 1.4791429370e-01 2.7285386145e-01 1.3531237322e-01 -1.1886769890e-01
1613 2.2289565928e-01 -3.6824274599e-01 6.6991569814e-01 2.2275957351e-01 8.6957676903e-01 6.6011163673e-02
1614 -2.3647999387e+00 4.3016017248e-01 8.1079908413e-01 1.5681143990e-01 -1.6319461520e-01 1.8509902614e-01
1615 7.5089516565e-02 -3.2358451531e+00 -6.9657010296e-01 8.9547754077e-01 3.2301217519e-01 -5.1122690828e-02
1616 1.2271890830e+00 -4.1447012920e-01 1.3744409445e+00 -9.2708584149e-01 -2.9765269397e-01 8.8699020811e-01
1617 -2.3467732429e-01 -1.4277414394e+00 -2.6058796798e-01 6.9687211984e-01 7.2323623831e-01 -1.4074891856e-02
1618 -1.5966745993e-01 5.2404049156e-02 -8.2574346603e-01 -2.3356780877e-02 -1.4083665354e+00 -2.4520690916e-01
1619 1.6479855777e+00 1.3485796995e+00 -4.7731126081e-02 -2.9242879190e-01 -1.3687336633e-01 -4.4992803613e-01
1620 3.5520154912e+00 -7.7293767930e-02 1.2758052998e+00 5.3184511124e-02 -3.2943251729e-01 5.4182282480e-01
1621 1.3075673173e+00 6.9820438688e-02 -8.2530726954e-01 -9.5517866602e-02 -2.6922963803e-01 4.9619840959e-01
1622 -1.4750359514e+00 1.9000964495e+00 -4.9330937691e-01 -4.3422228585e-01 1.5897732539e-02 -1.2211762264e-01
1623 1.1241227612e+00 -6.6629198444e-01 -1.1873418139e+00 6.6963377525e-01 -1.5751850482e-01 -3.6778599381e-01
1624 1.2999799365e-01 1.2957414862e+00 5.0301351587e-01 -4.6857712180e-01 -9.1839687517e-01 -1.1460586868e-03
1625 -1.5171231827e+00 -8.5894685341e-01 1.5755231901e-01 3.1804195631e-01 -7.9417088435e-01 1.2487031720e-01
1626 -4.1638920695e-01 7.1231045851e-01 1.4137114947e+00 -1.0897196687e-01 -3.1660995055e-01 -9.5090711542e-01
1627 -1.5417142392e-01 5.2861629766e-01 -2.4162000866e+00 -3.0490064031e-01 2.3655726424e-02 7.4522478050e-01
1628 -2.0810732658e-01 3.1788975787e-01 3.8682902501e-01 -4.3804934992e-02 4.7403913307e-01 -1.6499808898e-01
1629 -7.0239288724e-01 -8.7579122575e-01 3.0132391084e-01 -3.6062747296e-02 -2.1807568838e-02 7.2406096219e-02
1630 2.3648818702e-01 -1.5499061082e+00 -8.1165086287e-01 -5.7628771250e-02 2.7320873898e-01 -6.4966345170e-02
1631 -5.7664129462e-01 -5.1196443893e-01 -1.2123370946e-01 -4.6726435230e-01 -2.0415448802e-01 -9.4052231693e-02
1632 1.1529487027e-01 7.7732795533e-01 3.6774277784e-01 2.7834562082e-01 -5.0571356373e-01 -9.4167425371e-01
1633 1.5739834066e+00 -1.7205573275e+00 -1.7597281654e+00 -4.5535125117e-01 3.2536077821e-01 -3.5946418853e-01
1634 -6.8264908998e-01 -9.5509113169e-01 -1.2566988982e-01 1.1416367443e-01 9.8594641132e-01 -2.0270511358e-01
1635 7.8887013648e-01 6.9086179374e-01 2.8511005738e+00 -1.1131817858e+00 1.3633470025e-02 -2.7840887815e-01
1636 2.3794744121e+00 8.2842458045e-02 -3.7922178393e-02 -9.7443788612e-02 -1.5605714509e-01 -4.0365502472e-01
1637 -5.7032655517e-01 1.0792009783e-01 1.8099554738e+00 3.2101801500e-01 2.2733065431e-01 1.3126612542e-01
1638 3.7399154962e-01 -9.9276655715e-01 4.8039621272e-02 -1.1988718495e-02 7.9014973692e-01 3.4754139797e-01
1639 1.2636257504e+00 1.2082920708e+00 2.2919362097e-01 -7.1279515750e-02 -9.4864085431e-02 -5.1539987627e-01
1640 -2.7274195143e-01 1.8170065569e-01 2.4341931421e+00 -1.2977778581e-01 7.8282328153e-02 5.3211239009e-01
1641 2.8154981400e-01 -8.6368535548e-01 1.0284143225e+00 1.3444945222e-01 9.8342375383e-02 4.5262974915e-01
1642 1.0115925599e+00 1.1958855241e+00 -5.6309334773e-01 -3.0558358308e-01 -4.1404854703e-01 -1.5845254996e-01
1643 -2.1761113706e-01 -6.0709800308e-01 -1.0171099761e+00 -1.2299330483e-02 -9.1878316071e-03 -1.3801697647e-02
1644 1.3833332618e+00 9.6099760378e-01 -9.3147958632e-01 5.5703271500e-01 5.1758836501e-02 1.1116292923e-01
1645 1.1916439647e+00 -4.6439429300e-01 -7.3891773200e-01 -3.1596215879e-01 -6.3987892350e-01 1.9462979389e-01
1646 3.0098004071e-01 -3.8423280016e-01 1.3152824054e+00 -3.1225529668e-01 4.2686993613e-02 2.1230897597e-01
1647 1.6137491217e+00 1.6667375421e+00 1.8013309066e+00 4.9404017945e-01 -1.2113509219e+00 -2.0108902364e-01
1648 4.7729178568e-01 -1.7379422861e+00 -1.7508516055e-01 -1.7963335410e-01 4.2046892502e-02 9.8220686671e-02
1649 -8.2299498702e-01 5.8923562422e-01 -1.0181369018e+00 -2.6903389788e-01 5.7081304057e-02 2.2446139161e-01
1650 -1.5456638837e-01 -3.6250192117e-01 1.9212355650e-01 2.9867009505e-01 -6.1216388736e-01 -2.8524114037e-01
1651 -1.0396035481e+00 -2.5106277454e-01 9.8386774390e-01 -8.9754311949e-02 4.6540535280e-01 -7.5514275045e-01
1652 1.2827417542e+00 7.2702144942e-01 9.4049280898e-01 1.2256952288e-01 4.4456315697e-01 2.0071113007e-01
1653 4.4218490471e-01 1.8396054825e-01 -1.5921238995e+00 6.4736636285e-01 -1.1253291726e-01 -5.8060867122e-01
1654 3.0273992290e-01 9.9810296647e-01 -4.6844637841e-01 3.9945638902e-01 7.5733443137e-01 6.1493600306e-02
1655 -1.4224808878e+00 -4.5582605263e-01 1.4996148745e+00 -6.6080579614e-02 -2.3689364740e-01 -8.1320613366e-02
1656 1.1653298135e+00 8.8191780498e-01 -2.1479955978e-01 -1.0143143817e-01 -4.7610373352e-01 -9.9424800196e-02
1657 4.0257991221e-01 -1.3728797777e-01 -9.9250537864e-01 1.0014578805e-01 -1.0650226226e-01 -3.7739454730e-01
1658 -5.1488351484e-02 -1.2690258260e-01 1.2093988364e-01 2.6778065916e-01 -1.4504124978e-01 2.4505541945e-01
1659 1.1845601880e+00 1.4805761605e+00 -6.3182397075e-01 -1.4895139699e-01 4.2642484397e-01 -1.5262053821e-02
1660 -5.8829485433e-01 5.5347170328e-02 3.1795668323e-01 1.2260296518e-01 3.6899494253e-02 -7.1860607104e-02
1661 9.7280307739e-01 2.7641349315e-01 2.5623260472e-01 -7.9652954313e-02 4.6876501701e-02 -1.9545906009e-01
1662 -2.3235495276e-01 -1.2399834070e+00 -7.0658345974e-02 2.6278265352e-01 1.7407272155e-01 -4.0242655400e-01
1663 9.3612870750e-01 -8.7808066648e-01 1.0410262260e+00 2.2361861560e-01 5.8584515245e-02 -9.1451765175e-02
1664 2.0205828855e+00 7.9910421219e-01 6.6266323686e-01 -1.8797072243e-01 -2.0380300862e-01 7.3569663732e-01
1665 -2.5244095787e+00 1.5067240361e+00 1.1218251107e+00 1.4114601112e-01 -6.4757805376e-01 3.4958323061e-02
1666 1.1326406130e+00 1.3425024700e-02 -9.1428138600e-01 -6.4639351702e-02 -3.6725465578e-01 1.4293662198e-01
1667 -1.0797076646e+00 1.2832538115e+00 3.4595925463e-02 4.4261565414e-02 9.2963322288e-01 2.3946457726e-01
1668 5.8715134215e-01 4.4767944123e-01 -1.4077444163e+00 -2.1799566031e-01 -1.0005342151e+00 6.9776934726e-02
1669 7.9705355871e-01 -2.0683790966e+00 -4.2973745816e-01 -3.0019248821e-01 -4.1217126357e-01 -4.9125912093e-01
1670 1.8671823019e+00 -3.8378103178e-01 2.3744332791e+00 -2.9849874598e-01 2.6704504042e-01 -2.6806357937e-01
1671 -7.4916603066e-01 -3.8407038886e-01 1.2231890189e+00 3.5314180010e-01 2.3456402785e-01 -3.4272352835e-01
1672 9.1885007332e-02 1.7299168206e-01 6.2748175592e-01 -2.7009591622e-02 1.9408132432e-01 2.3769896394e-01
1673 4.5764499858e-01 2.1083894126e+00 -3.2456192442e-01 2.3607780809e-01 -6.4940337057e-01 1.5447327568e-01
1674 -1.5372334473e+00 -1.5902315943e-01 4.6453580024e-01 -4.1409630622e-01 1.8471710334e-02 9.7471379446e-02
1675 -8.8901902107e-02 1.3121708664e+00 -1.4313758542e-01 3.1850289389e-01 -4.5186888526e-01 -4.3076168415e-01
1676 -3.2611985771e-02 9.9978091788e-01 -2.0059565432e+00 -2.5541960054e-01 -3.9044615595e-01 9.8365916658e-02
1677 -5.0354022439e-01 -2.2251731057e-01 -7.7242166700e-01 9.0071904393e-02 3.1875231160e-01 -4.5548095048e-01
1678 1.7283463675e-02 5.7445519131e-01 3.8046498387e-02 2.2840396230e-02 -1.0714994350e-01 -1.5868230038e-01
1679 -2.8919231663e-01 1.1023280585e+00 -2.6057669989e-01 -1.2982050145e+00 8.7542552672e-01 -8.0511039645e-02
1680 5.1191446399e-01 5.1135472744e-01 -6.1709272871e-01 -1.2116040599e-01 4.2693257969e-01 -3.1201008813e-01
1681 -1.0413237199e+00 7.2565744277e-01 1.8377317136e-01 6.7744517183e-02 1.2643604590e-01 -3.3752481377e-02
1682 6.7881576617e-01 3.2855338678e-01 1.3108726989e-01 -5.1063151155e-01 -3.5313893736e-01 -1.4838582782e-01
1683 -3.3005966853e-02 1.3253356798e+00 -9.2051467314e-01 6.1298269124e-02 -3.8801422651e-01 -5.5264017122e-02
1684 -9.7656072137e-01 8.5778986966e-01 1.2967886363e+00 -9.7720333911e-01 4.8280584718e-02 1.0712713843e+00
1685 -3.4054864951e-01 -6.6424576201e-01 1.7182155735e+00 3.8579103021e-01 1.1827753833e-01 -2.8376402701e-01
1686 -6.8062973065e-02 1.0151760615e+00 -8.2986564403e-01 2.5272919325e-01 1.4811497419e-01 6.9563483739e-02
1687 3.5898888699e-01 8.3830169914e-02 -1.2705142393e+00 -2.8724671674e-01 1.3294754313e-02 2.7731066711e-02
1688 5.4786029123e-01 -1.6390224287e+00 -1.2447764256e+00 -5.2495504886e-01 -6.5108712665e-01 2.1624689131e-01
1689 2.4554361848e+00 1.6280088915e-01 1.7993130732e-01 -7.0022574034e-01 7.8128013984e-02 -9.5918252828e-01
1690 -1.2550763061e+00 2.5986365986e+00 8.8728780956e-01 -2.5540333114e-01 -2.0951593932e-01 1.0131457242e+00
1691 -1.6081031526e+00 -1.7830218421e+00 -2.4706994976e+00 5.9936177415e-01 -2.5210356998e-01 -4.7828292176e-01
1692 -6.5372584477e-01 1.0622911850e+00 -3.5338147356e-01 2.7164870920e-01 -3.1950507440e-02 -1.6963633475e-01
1693 7.9923783159e-01 4.8405311647e-02 4.1760732086e-01 6.2601011846e-02 7.4074425095e-01 6.7739238262e-01
1694 5.5270604896e-01 -3.9330501411e-01 -5.6815016327e-01 8.7643534780e-01 4.4618785771e-01 -1.8205086445e-01
1695 -6.4571584014e-01 5.0059907188e-01 5.9843049341e-01 1.3544172559e-01 2.0828884423e-01 -5.1497696011e-01
1696 -1.9608918307e+00 -1.7372001748e-01 -7.7623282662e-01 -7.3215802721e-01 -7.3692423292e-01 -6.9683114687e-01
1697 1.0899463741e+00 8.8301772200e-01 8.2836336902e-01 4.6157371976e-01 -6.9269839938e-01 -2.4897087792e-01
1698 1.3291643454e+00 7.9866740444e-01 1.5465466524e+00 -4.3509084445e-01 -6.0887071295e-01 -2.8177989925e-01
1699 -1.2664023371e+00 1.2231441521e-01 -5.1004647089e-01 -1.3796058362e-01 1.9973261134e-01 -1.6647277566e-01
1700 1.5551532530e+00 -4.6780773285e-01 4.3242141571e-02 4.9268866376e-01 1.0974207575e+00 -7.2771026898e-02
1701 -1.5539656218e-02 -6.2634296228e-01 -7.8019093801e-01 3.3285417197e-01 5.9469511105e-01 -3.6290716852e-01
1702 -1.3145130010e+00 -6.3873667297e-01 1.8029043472e-01 1.2390594819e+00 -5.4314473522e-01 4.7944080826e-01
1703 7.9606899949e-01 -1.3889168418e+00 -2.2630757841e-01 -5.9673634972e-01 3.7504070235e-01 8.9418189166e-01
1704 -1.4540142775e+00 -1.3796120323e+00 -8.7697106495e-01 2.6557193117e-01 -1.7600226401e-02 -2.4837721864e-01
1705 5.4338794023e-01 -1.9429212454e+00 2.1279799544e-01 1.1049235430e-01 1.9749072049e-01 -8.9277954106e-02
1706 5.3865713800e-01 1.7519758606e+00 -5.2457679752e-01 7.7259887183e-01 8.7199156466e-01 -3.4535009881e-01
1707 6.5664607078e-01 4.6973871037e-01 -9.0757513638e-01 1.6241823970e-01 -8.9224126760e-01 -7.9449704943e-02
1708 -4.4985078860e-01 -6.8676425494e-02 1.1897305182e+00 1.1304767273e+00 6.0987073900e-02 -1.6558336813e-02
1709 2.4580627836e+00 -1.2898755593e+00 -7.1473472546e-01 1.9814365412e-01 -4.6140723743e-01 2.5504003650e-01
1710 2.4364025843e-01 3.8868465015e-01 -5.6036974442e-01 -6.4873023171e-01 -4.6245357094e-01 6.5008666186e-02
1711 9.8902470648e-01 -1.1875701386e+00 7.1135408224e-01 -2.4542664630e-01 4.6773150638e-02 -4.5543516860e-02
1712 3.8322343081e-01 -9.3225974007e-02 8.4491328429e-01 -2.7891312103e-01 3.7350799762e-01 2.9191092524e-01
1713 1.3092375517e+00 1.3557395095e-01 -4.4461658625e-01 -4.4298909375e-01 -5.2778660481e-02 5.9199623368e-01
1714 -2.4578403556e-01 3.3580235884e-01 -1.1279043950e+00 7.3884093510e-01 3.1259316440e-01 2.4354029017e-01
1715 6.5539929912e-01 -3.3382528125e-01 8.8634703927e-01 2.2806338954e-01 -1.9864887887e-02 6.5653718104e-02
1716 -8.3987988459e-01 1.0436725164e-01 1.8275785934e+00 8.2293352465e-01 -4.5242623100e-01 6.6991553075e-01
1717 1.1560624382e+00 -8.1484282379e-01 1.6170566780e+00 6.1290451982e-01 -4.4094045987e-01 9.5693364334e-01
1718 -3.0301368983e-01 1.1704300440e+00 -6.6720118304e-01 5.6172082541e-01 -5.0964152750e-01 1.1830361020e-01
1719 1.5317822499e+00 -8.3664347048e-01 -6.5386878486e-01 -2.2004934725e-01 -2.7111084976e-01 2.8731738126e-01
1720 3.0994663000e-01 9.2751576427e-01 -2.3119683105e+00 3.4537053913e-01 2.8532979127e-01 6.5770242966e-01
1721 -5.2101968144e-01 -3.9102540529e-01 -4.8871015094e-01 1.1227042370e-01 -2.5073907539e-01 -7.4913963246e-03
1722 -2.5521552845e-02 1.8627077170e-01 1.2515642387e-01 -9.0538973979e-01 -8.7799162718e-01 -9.1548000684e-01
1723 -9.4681275267e-01 -1.0551571923e+00 4.5092918846e-02 1.4111135138e-01 2.3771433906e-01 2.8794949392e-01
1724 4.1272992875e-01 6.4889580601e-01 -3.2175561469e-01 2.1627740182e-01 -5.2150179863e-01 -4.8334432287e-01
1725 1.2133435241e+00 -4.3443220552e-01 4.9550074139e-01 -1.7408147271e-01 -1.2976550878e+00 -5.4294656927e-01
1726 1.0307870299e+00 1.3567849798e+00 -5.4744321349e-01 -1.5017158697e-01 5.1961782627e-01 -1.8832515972e-01
1727 -1.4800242753e+00 1.2258113616e-01 -2.3343064940e-01 3.8182613726e-02 -6.8503045721e-01 -7.9700849842e-01
1728 -3.1104780478e-01 2.5493477145e-01 4.5278719821e-01 -4.8884098134e-01 -4.1922868778e-01 6.2993926982e-01
1729 1.0047612266e+00 -6.9394555470e-01 6.0459720986e-01 -3.4732017681e-01 -6.9475877033e-02 7.2990652477e-01
1730 3.5504540216e-01 2.1280978526e-01 -1.2897341001e-01 2.0335879472e-01 1.2136428147e-01 -4.3113761665e-01
1731 1.9147719653e+00 -8.1285431981e-01 1.4252228841e+00 -6.8562364242e-03 -4.1741447555e-01 -2.6660181100e-01
1732 1.0618857873e+00 1.2860561667e+00 5.9565928759e-01 1.1768286357e-03 7.2607313699e-01 2.4338608987e-01
1733 3.5542284592e-01 1.2212594200e+00 6.8552597592e-01 1.8980857342e-01 -2.6038616864e-01 6.0221110427e-02
1734 -3.3536257013e-01 -5.9798403022e-01 6.6023434925e-01 -8.0730463282e-01 -3.3614465358e-01 -8.9453421575e-01
1735 5.8569966349e-01 4.0649552179e-01 4.3059511266e-01 7.5290188609e-01 -3.2604562567e-01 2.4679992133e-01
1736 -4.1842553378e-01 -5.2886072922e-01 -7.8195291312e-01 1.6737976529e-01 -4.1330078577e-01 1.0765445934e+00
1737 9.4784546094e-02 -2.3095268179e-01 9.8882346075e-01 2.4482727505e-01 7.6237533025e-01 8.3578550003e-01
1738 -1.1632103923e+00 -1.2110597190e-01 4.5299806797e-01 5.0151808237e-01 3.1382263505e-01 -3.0362486891e-01
1739 7.4156982540e-01 -1.1213567762e+00 -6.0580460356e-01 9.7844595005e-03 -2.5680981941e-02 2.4610034921e-02
1740 2.9120017906e-01 4.4750268692e-01 -6.2314850095e-01 2.1875324321e-02 7.5315395613e-04 2.5095056379e-02
1741 3.1173538746e-01 -2.5070075786e+00 -3.8032927330e-01 9.7020109268e-02 -1.5201579863e-01 -1.4712396364e-01
1742 -6.8845804546e-01 -1.4227237107e+00 -9.5319799189e-01 -3.1017769648e-01 -5.4587491325e-01 -7.7435339253e-01
1743 -7.7272048907e-01 9.0301720293e-01 4.4220640062e-02 -5.0662263632e-01 1.2008502277e-01 2.5277250199e-01
1744 -5.1791173481e-01 8.4691471085e-01 6.6450549455e-02 -7.0749960586e-01 -1.4391281997e-02 1.1516057848e-01
1745 1.2114288746e-01 -4.5618171061e-01 9.3992651190e-01 -6.1542653031e-03 -1.8391588521e-02 1.4353193075e-01
1746 9.7850711840e-01 6.1940233609e-01 4.8718737966e-01 -2.3432464328e-02 -3.4459874309e-01 -4.5866979681e-02
1747 9.7678327412e-01 -1.3658681453e+00 1.2015008362e+00 9.8150408438e-02 -7.9107485964e-01 6.0336434761e-01
1748 -6.7397980362e-02 -1.9883515263e-01 5.6065118633e-01 6.8705149362e-02 5.9384263498e-02 7.4778435684e-01
1749 9.5123619611e-01 2.5948786981e-01 1.2773731366e+00 3.6736763008e-01 1.9297695706e-02 -2.5560581460e-01
1750 -1.6599436027e+00 1.6148455853e-01 3.1910033788e-01 6.6534390472e-02 -3.6248084673e-01 -8.3265793961e-02
1751 5.9705731628e-01 9.5006231184e-01 -6.6043461498e-01 -1.9647368388e-01 3.8483890095e-01 -4.4848215460e-01
1752 1.4407575041e+00 8.9089546803e-01 1.3103035376e+00 5.2871371653e-01 7.7124605429e-02 -1.9940874137e-01
1753 -8.5590147322e-01 -6.5389921611e-01 1.7965346143e+00 -5.2824434833e-01 1.5323815876e-01 3.1764131133e-01
1754 -6.5067237791e-01 1.3803150926e-01 8.2701568336e-01 2.4572717322e-01 -2.7485667127e-01 -4.8386626002e-01
1755 -2.3750109660e-01 -1.0742649258e+00 3.4312213999e-01 -3.4423704678e-01 -1.2516103237e-01 1.9078860921e-02
1756 2.1359473490e+00 1.1473855529e+00 -4.0804158277e-01 -1.3861108640e+00 7.5214382327e-03 -6.0756928379e-02
1757 1.4029589573e+00 1.3717878209e+00 2.3277774110e-01 -4.3122696071e-01 4.1275459761e-02 2.9835172724e-01
1758 -7.1832398972e-01 1.5568679747e+00 2.2157813342e-01 5.4936073858e-02 -2.5165600906e-02 4.2918232431e-01
1759 3.4624833539e-01 -3.0125112259e+00 -1.4596100212e+00 6.2688239893e-01 3.2237951457e-01 -4.2683137498e-01
1760 9.1717578224e-01 -3.5429430392e-01 1.9087845699e+00 -2.5483077536e-01 -3.3473051217e-01 3.6227745185e-01
1761 -5.9544820027e-01 -3.5629161987e-01 -1.1666810564e+00 -2.9849590760e-01 -6.9025774683e-01 -1.0676811924e+00
1762 1.2326251574e+00 -2.2828455381e+00 1.4176406980e+00 1.5999311014e-01 1.7001843041e-01 -1.7221471507e-01
1763 -7.1370462622e-01 5.0463617696e-01 -1.1821725150e-01 3.2330278875e-01 2.6735478868e-01 7.9344507970e-02
1764 -1.0906081567e+00 9.7159203071e-01 -1.6185520774e+00 5.9257356620e-01 -7.1917663436e-02 -1.1801108342e-03
1765 -9.8842422167e-02 -7.1500511658e-01 1.2682576409e+00 -5.5001449915e-01 -1.4676754842e-01 -2.9136841941e-01
1766 -9.7718770595e-01 7.6100360139e-01 -9.7842333215e-01 1.6298191077e-01 1.2214911459e-01 4.3363142404e-01
1767 7.9675231082e-01 -5.4596941025e-01 -8.7952756401e-01 -2.5122139778e-01 -6.9390084667e-01 2.7948729974e-01
1768 -8.4889864672e-01 7.5779965096e-01 -1.2161969823e+00 2.2454696162e-02 -9.3406250131e-01 -4.4231179160e-01
1769 -2.8320773955e-01 -3.3970770579e-01 2.6683750243e-01 -3.8213066844e-01 4.9293879375e-01 -3.8653933183e-01
1770 -1.7518028229e+00 2.2859969323e+00 -6.8895492484e-01 6.2279597328e-01 4.0225073006e-01 1.0535873967e-01
1771 -4.3784668987e-01 -6.7620617183e-01 1.5465831850e-01 -5.7422783894e-02 9.0907885219e-02 -1.3074847070e-01
1772 -6.0113963116e-02 -4.6562484293e-01 3.3164452824e-01 -2.6003674998e-01 3.8208886629e-01 4.1559821676e-01
1773 -1.9888455808e+00 1.0468660581e+00 -1.0636890649e-01 -4.4610638423e-02 6.9798622447e-02 3.9050309140e-02
1774 -1.1403662594e+00 1.6267702127e+00 2.6855761854e-01 -4.6303996067e-01 7.8270282594e-02 -4.1563864499e-01
1775 -1.3314804202e+00 3.7280933514e-01 1.8367390686e-01 -6.6219782815e-02 3.1771320011e-01 -2.4859634634e-01
1776 -5.4488575156e-02 -3.5012393159e-02 -2.1176739805e-01 4.1741368154e-01 2.4154889941e-01 -3.6502802164e-01
1777 1.5532123043e+00 1.4363527717e-01 -2.2664116251e+00 6.0249318215e-02 -1.3776094972e-01 4.8392225864e-02
1778 -2.5254182605e+00 -1.9232563177e-01 -1.2018147420e+00 -4.4699865371e-01 2.9896756855e-01 -2.0000692383e-01
1779 1.2594180501e+00 -1.8624780476e-01 -1.2098546061e+00 -2.1125584901e-01 -2.6177653500e-01 -7.9337925391e-02
1780 -4.7824827484e-01 -1.8001738639e+00 7.8208058712e-01 -5.7274699623e-01 7.3120245768e-01 -1.1578898688e+00
1781 -1.7499091760e-01 3.5966404625e-01 6.9941357932e-03 3.9649716631e-02 -3.2413714147e-02 -2.0403945067e-03
1782 -7.0041828094e-01 -1.0824188638e-01 7.1209575891e-01 3.7493534817e-01 -2.1097641242e-01 1.5183638947e-01
1783 -1.1553399919e+00 1.4725026847e+00 2.6905039632e-01 -8.0766833507e-01 -2.0088888158e-01 2.6968250734e-01
1784 1.2289342446e+00 3.3362072993e-01 3.8230753623e-01 4.7517587222e-01 7.4564337840e-01 -5.1764286022e-01
1785 -1.8766255789e-01 2.3634810830e-02 2.6238969035e-01 2.6613902861e-02 2.2302858841e-01 1.7371184285e-01
1786 7.9917578856e-01 -4.6714041054e-01 -5.9972204140e-01 4.3838056818e-01 1.8163832355e-02 1.0865260762e+00
1787 1.2619406264e+00 2.8873780515e-01 -9.1324829723e-01 4.4940689966e-02 -4.1264774315e-01 5.9700436745e-01
1788 1.1155877981e+00 -1.3932924239e+00 -2.3069496285e+00 6.6202350766e-01 2.3528163563e-01 -4.4264778570e-01
1789 2.5652311208e-01 1.0684291175e+00 -1.6893341858e+00 -4.8185190671e-01 -5.4315123071e-01 -3.7847246647e-01
1790 1.1159903175e+00 1.4486723157e+00 8.1497635274e-01 -2.3885006691e-01 5.4978725785e-01 1.2065060133e-01
1791 -1.3645664102e+00 -2.3955747671e-01 8.9405817118e-02 -1.2412795509e-02 7.5034104712e-01 -6.7314689276e-01
1792 3.0614905352e-01 -6.3631837322e-01 7.5024208100e-01 -4.0025719000e-01 -7.2828437891e-02 -1.5639019208e-01
1793 5.2916584708e-01 1.0415869768e+00 -1.2337574073e+00 3.3234205462e-01 -6.2211666915e-02 -1.9393624828e-01
1794 -6.0767552736e-01 5.9027624071e-01 1.2128717345e+00 8.4471895378e-01 -7.2918260761e-01 8.6312927458e-01
1795 5.6418849176e-01 4.7321514173e-01 -1.4450390423e+00 -1.8364204563e-01 4.1219514320e-02 1.1231904779e-01
1796 -5.8978836542e-02 5.6510195306e-01 -1.5361718043e+00 -4.2157866589e-01 -3.6627428042e-01 -6.0076492423e-01
1797 -1.8493507582e+00 -5.8777288049e-01 8.7313391781e-01 -4.0581883342e-01 5.2916772717e-01 9.5294683239e-01
1798 1.7272269592e-01 -2.0354693610e-02 -8.9404230104e-02 -1.3946362412e-01 9.6122064483e-01 -1.3918433980e-01
1799 8.4348907440e-01 1.8294284253e+00 1.0994797474e+00 1.7161759359e-01 -2.3280686427e-01 2.3965778308e-01
1800 -1.0883924818e+00 -4.3634747597e-01 -4.5345565174e-01 1.0475268178e+00 4.6253027463e-01 3.8357882319e-01
1801 9.5126783092e-02 1.4585620123e+00 -1.8890344544e+00 1.0309723272e-01 -1.2283216397e-01 2.2787020771e-01
1802 -1.3009127667e-01 -3.2785535662e-01 4.4980252517e-01 2.5070204821e-01 4.4608839607e-01 -1.7375509921e-01
1803 -3.5458688707e-01 4.1665647039e-01 1.3387280377e+00 -5.7119322435e-02 -1.8176464924e-01 1.9957668716e-02
1804 2.6160485106e-01 1.4278464132e+00 1.7424470190e+00 -7.7949615888e-03 -8.9276127975e-02 -1.4723398815e-01
1805 6.8430406512e-01 -1.2290352878e+00 -6.2397059973e-01 -3.9688143272e-01 2.9532131023e-01 8.0122977698e-01
1806 1.3078105325e+00 -1.2914800154e+00 -1.7108298360e+00 1.0218500303e-01 -4.8786999730e-01 -4.1891973826e-01
1807 -6.2723464571e-01 3.3886204885e-01 6.8574627135e-01 2.1245262522e-01 3.7482438813e-01 4.5083777122e-02
1808 3.9263161206e-01 -2.3778757289e-01 7.0063865472e-01 1.7663092780e-02 4.2548761639e-01 -4.2017051044e-01
1809 -2.2798878048e-01 -1.7456526835e+00 6.9094573599e-01 -8.5037029621e-02 6.2104415416e-01 -1.4057607109e-01
1810 -5.9173142763e-01 4.6432709881e-02 -2.3249540373e+00 1.5775090231e-01 -8.3808624133e-01 -2.0235176451e-01
1811 -1.2688127067e+00 1.5815742157e+00 -2.3823035754e-01 -1.8935487359e-01 -4.3867573407e-01 -3.3514525938e-01
1812 8.1215328792e-01 -1.5539003978e+00 -1.5015014281e-01 -2.0787821617e-01 -3.8546712303e-01 4.3123758359e-01
1813 -1.9732762392e-02 -6.8859071785e-01 -1.5528602409e+00 -9.1735090546e-02 1.8876302114e-02 -9.7822247108e-02
1814 1.1725259071e+00 -7.2971704714e-01 2.5740464481e-01 -2.4581000135e-01 -3.1191942285e-01 8.5564562266e-01
1815 9.1529995093e-02 1.8809346865e+00 1.1995631216e+00 -1.2894334403e-02 -4.9249181215e-01 -3.3103439687e-01
1816 -5.9012113028e-01 1.5261047988e-01 -8.5042033104e-01 -1.9065620275e-01 -3.0908869632e-01 1.4787335190e-02
1817 1.2688516408e+00 6.9868093732e-01 1.9296501399e+00 3.9096962889e-02 8.3322832889e-02 -5.3585362600e-01
1818 9.6288357959e-01 5.1133351210e-01 5.6095200874e-03 -3.5516158363e-01 -7.9798163648e-01 -3.7874711620e-01
1819 1.4218781204e+00 -1.5862651878e-01 -1.6357759545e-01 3.1102676819e-02 -2.0759989808e-01 -9.4321441386e-01
1820 2.2376419153e+00 -7.8916974757e-01 -7.1245882750e-01 9.1194272924e-02 -4.6016224303e-01 -4.5382208043e-01
1821 -5.3887139147e-01 1.4622542661e+00 -3.0984924149e-01 1.0542725192e-01 -1.8353799035e-01 -8.3588927470e-01
1822 5.1848049046e-01 6.1769847893e-01 5.6359168654e-01 1.0757489770e+00 -1.6211941051e-01 2.7220965020e-01
1823 -2.7162562219e+00 -2.7581891419e-01 1.8757529681e-01 6.3508321991e-01 1.0754358731e-01 -4.2794293406e-01
1824 5.9530247064e-01 2.5591048131e-01 -2.1857883709e+00 -5.1858154804e-02 5.0624934245e-02 4.1112939873e-01
1825 -7.3972136839e-01 -2.0497773263e+00 -3.3949852329e-01 1.6796512819e-01 -2.4914440762e-01 1.5425855115e-01
1826 4.0762815758e-01 -3.4165570608e-01 1.4488848061e+00 -1.0066803281e-02 2.4385108103e-01 1.2109598413e-01
1827 -8.8944283448e-01 -4.6550298664e-01 -1.1375434976e+00 9.8689809443e-02 -2.5826784107e-01 2.7702185099e-01
1828 -1.4451655981e+00 4.4085814047e-02 3.8601593499e-01 7.0665287991e-01 -1.1319465767e-01 2.8894186282e-02
1829 -4.6950552129e-02 3.6618097378e-01 3.7767833734e-02 -3.8718252133e-01 2.1305172557e-01 2.0555505950e-01
1830 -2.8830281590e-01 4.6774648642e-01 4.1907767009e-01 1.3293193156e-01 4.6004835095e-02 6.2252371539e-01
1831 1.6465349847e+00 8.7333644850e-02 5.9529935043e-01 1.1073436805e-01 -3.6891313936e-01 3.1893535174e-01
1832 -1.0878043387e-01 -3.1024311222e-01 9.1161032695e-01 9.8489895341e-01 -5.6343675600e-01 -7.3367823619e-01
1833 -8.7015841114e-01 7.0058608954e-01 -4.7941552791e-01 -2.2174249504e-01 -3.6588599486e-01 -4.2241396481e-01
1834 1.6470109345e+00 -7.9108493570e-01 -2.8663017320e-01 2.4137404204e-01 3.2070705594e-02 4.2622054263e-01
1835 4.5822836347e-01 1.3725719225e+00 -1.9269059074e+00 3.9095733859e-01 5.3236958821e-01 1.3007760889e-02
1836 -1.1822195548e-01 -8.7132429852e-01 8.9650003478e-01 -1.2897858089e-01 -2.1092725822e-01 1.8795689512e-01
1837 -1.5981611280e-01 -3.2381100841e-01 -1.7354717027e+00 -1.8641770746e-01 -7.1183106982e-02 3.5428221033e-01
1838 1.0774589836e+00 -1.0574809098e+00 -1.4322647312e+00 -3.1643761291e-02 -1.4305033546e-01 4.4261266943e-01
1839 1.1168433716e+00 3.2657963344e-01 -2.3093066204e-01 -4.0330739697e-01 1.9494522813e-01 -3.3460636716e-02
1840 -3.6143439496e-01 6.1391924532e-01 2.0598160128e+00 -3.2571572987e-01 -1.2273016604e-01 -7.0101695246e-02
1841 5.8131567763e-01 -1.1007386644e+00 -7.8239546681e-01 -7.4103641075e-01 -8.5261110360e-02 5.1615497855e-01
1842 -1.6512646446e+00 -6.1367563433e-01 9.2410860481e-01 2.7233071850e-01 9.6554677843e-02 1.4197532288e-01
1843 -1.2774298200e+00 -3.7922791417e-01 -1.1899090870e+00 -1.4735764369e-02 -5.5051020069e-01 -2.6479486013e-01
1844 7.8536695412e-02 -1.7518231955e+00 -1.0036992265e+00 -1.2786924883e+00 -9.5168594466e-01 4.0968230602e-01
1845 -2.6326859482e-01 -5.8001055806e-01 1.9790510132e+00 -2.2957161910e-02 -4.1313674324e-01 6.7375534162e-02
1846 1.4281196817e-01 2.4469269963e+00 -6.8098585309e-01 3.1662131311e-01 1.3793356672e-01 4.5355834674e-01
1847 5.8387836125e-01 4.7301139206e-01 2.4317623977e+00 5.7646950351e-02 1.2422156783e-01 -8.6879077817e-01
1848 -2.6117410445e-01 6.6843339543e-01 -3.6930228295e-01 -5.0547237713e-01 9.5563147411e-02 2.0721970518e-01
1849 3.2240826239e-01 -3.9469152106e-01 -1.9499977837e+00 -3.6662521743e-01 -9.5859462032e-02 4.0491141141e-01
1850 -9.3076979250e-01 -1.6987655264e+00 1.4428546568e+00 5.8179263198e-01 -3.3545208219e-01 -9.1032531915e-01
1851 1.9805038703e-01 3.1989415288e-01 3.5526372689e+00 5.4433795782e-01 4.1510698898e-01 -3.8051277784e-01
1852 -1.4145489463e+00 2.0858925495e+00 9.8188442027e-01 -2.2013556727e-01 -3.2021549675e-01 5.2589325678e-01
1853 -5.8170540495e-01 7.3231745269e-01 7.2800279310e-02 -5.5024009619e-02 2.2116994430e-01 -2.6902238480e-02
1854 -4.5691827240e-01 -1.7968291698e+00 -3.0093820014e-01 3.8631322227e-01 1.1881048419e-01 9.2674776900e-02
1855 7.8970118858e-01 -1.4995622637e+00 5.4399489953e-01 -4.1092758885e-01 -7.0494991145e-01 -3.7218531140e-01
1856 6.3705181396e-02 7.3816290505e-01 -1.3433908059e+00 5.3135855310e-02 2.0687243541e-02 -6.1992262785e-03
1857 -6.2389069692e-01 -3.9542396694e-01 1.2551032057e+00 1.3136007357e-01 -6.6823046447e-01 -5.1761032937e-01
1858 -7.4600091653e-01 3.0381476690e-01 -6.9668052588e-01 2.8038116945e-02 -4.1532371137e-01 9.2919948103e-02
1859 6.6985723553e-02 -9.7022885329e-01 9.8498877887e-01 -3.5602055252e-02 2.6807315419e-01 -5.2390377120e-01
1860 1.7556246353e+00 -1.9238351812e+00 8.1114876454e-01 -3.8849775894e-01 -5.2521982730e-02 -1.0712911514e-01
1861 1.1280431487e+00 7.4312203977e-01 6.7274730109e-01 -1.8242329803e-01 9.3939273483e-02 -3.6985728166e-02
1862 6.4374021442e-01 -1.0616881004e+00 1.5614914048e+00 1.1897262340e+00 5.1837871615e-01 -5.4998034606e-01
1863 -7.9976296545e-01 4.3451014848e-02 1.1741547337e+00 -6.1904716358e-01 1.3065021952e-01 -8.9082639853e-01
1864 6.1367333541e-01 8.2826557038e-01 1.9629537904e+00 -1.5398410559e-02 2.0162553590e-01 7.5169903862e-02
1865 1.3497464892e+00 -1.8681992367e-01 4.0267676804e-01 -2.0679699165e-01 3.2249746588e-01 -1.6496073757e+00
1866 -4.2911790908e-02 -6.7176929872e-01 2.9850543769e-01 2.2083077287e-02 -6.7538845635e-01 5.0705281598e-01
1867 8.5238722716e-01 -5.7841036206e-01 7.3904490902e-01 7.0884048263e-02 4.3440110215e-01 7.7086229378e-01
1868 9.7726551655e-01 1.0442814482e+00 -8.0056906998e-01 -1.7463523931e-01 3.8713282704e-01 3.5936477298e-02
1869 -1.4711890805e+00 8.7875271257e-01 -2.2228380541e-01 -3.3072787655e-02 -2.0700070890e-01 1.3981356574e-01
1870 -1.4584856383e+00 3.2492430758e-01 -1.9964151629e-01 -4.5915995014e-01 8.0289897724e-02 1.8059716560e-01
1871 8.4682439795e-01 -3.9384810462e-01 2.2274671874e+00 6.2370767794e-01 1.2449789429e-01 -1.7853210050e-01
1872 1.9053751787e+00 -2.2846854541e-01 5.8717261982e-01 -1.0035236408e+00 3.0320596281e-01 -2.2985503666e-01
1873 1.9246232882e-01 3.4002136285e-01 -1.6571212447e-01 4.8273782486e-01 -6.4855319882e-01 -2.1436728986e-01
1874 -2.5713197251e-01 1.2010378810e+00 1.4220586292e+00 -5.2210068538e-01 5.2913161444e-01 -5.6262074977e-01
1875 -9.9251951745e-01 8.8820768063e-01 -5.5040599923e-01 9.3721471222e-01 -1.0238319037e-01 2.7283970331e-01
1876 -2.4030741852e-01 6.0475742670e-01 -1.0162195873e+00 2.2253605052e-01 6.0951680595e-01 -4.9689948146e-03
1877 -6.0360385269e-02 -7.1865015193e-01 -8.7328424120e-01 -9.6257617242e-01 -3.9132504503e-01 8.7010391174e-02
1878 2.1865616345e+00 4.2072118926e-01 -4.4553657390e-01 -9.2459813277e-01 -8.3311593173e-01 -4.6886339808e-01
1879 -1.8819933371e+00 -2.6525436263e-01 3.5239258042e-01 -2.1350929029e-01 5.6264384087e-01 1.0628887226e+00
1880 3.6211837251e-01 4.8754537010e-01 9.5416577223e-01 3.7141601071e-02 6.6593636999e-01 -3.1586645610e-01
1881 1.3630558123e+00 -3.9813368862e-01 -8.3538740164e-01 -1.4634386650e-01 -2.8005711688e-01 1.4301150723e-01
1882 -3.7547832570e-01 1.4165091810e+00 7.6434275372e-01 1.2312698653e-01 -3.1292184668e-01 -9.4483196392e-01
1883 -8.0491158694e-01 -5.2192033260e-01 -1.2448896029e+00 5.2606660328e-01 -6.5473784649e-01 3.7898829366e-01
1884 5.9495584946e-01 8.7182661874e-02 -1.1022413251e-02 -3.9584118137e-02 -8.7173005543e-02 1.2589664374e-01
1885 1.2187950329e+00 1.5353356937e-01 -9.8823642748e-02 6.6953282990e-01 2.7047550813e-01 8.0492621604e-02
1886 7.2800241549e-01 -1.8195882675e+00 -6.7456032309e-01 3.3144974829e-01 3.2155966362e-01 -5.3088617211e-01
1887 9.2148160452e-01 -1.2295280420e+00 4.2071089458e-02 -2.6697198079e-01 -8.5558630690e-01 4.3474263130e-01
1888 -2.3846002073e+00 1.0702309488e+00 -1.8724906379e-01 -2.6357986468e-01 -3.6996759065e-01 1.8162588105e-01
1889 7.1233994888e-01 9.2855177132e-01 -1.8749960750e-02 6.8677301105e-01 -1.0541042607e+00 -7.0127028305e-01
1890 -8.8467819713e-01 5.1388101325e-01 1.4433773291e+00 -4.3190463088e-01 -8.3150499394e-01 7.3070057199e-02
1891 9.2212472698e-02 4.0840686665e-01 8.5621210744e-01 -3.5845609042e-01 -2.1086175923e-01 -8.7281021984e-02
1892 -7.3723995845e-01 -1.9244803312e+00 -4.0168960180e-01 -7.8441128251e-01 -7.9511475467e-01 2.3596200700e-01
1893 7.1202793791e-01 -2.3643273355e-01 1.3249737640e+00 -8.5662107613e-02 -8.7429611819e-01 -2.9083722390e-01
1894 1.1297923891e+00 1.0847004118e+00 1.4554068261e+00 -4.8675165313e-02 -2.5014857732e-01 -7.8576397455e-01
1895 6.7160654274e-01 -7.2958886941e-01 2.7836476770e+00 5.0381224350e-01 -4.3281753705e-01 3.9665885389e-02
1896 -1.0339242905e+00 -1.1155474964e+00 -5.3214722389e-01 3.6171374220e-02 8.0646811251e-02 5.2322225040e-02
1897 5.3734760768e-01 -2.6836094729e+00 6.7052679048e-01 -8.3162675234e-01 2.8368578926e-01 2.5289255791e-01
1898 7.2296045247e-01 1.4007162161e+00 4.3541242509e-02 -3.6800507209e-01 2.2943522477e-01 -4.7617567685e-01
1899 -1.8807472586e-01 -8.3966087243e-01 6.6808426696e-02 5.6567609434e-01 -9.4886471708e-01 -6.1050786355e-01
1900 1.2941150615e+00 6.2773758912e-01 -1.1467543302e+00 4.3416519565e-01 4.7780441830e-02 2.2558132959e-01
1901 -1.7899197295e-01 -8.0960324181e-01 1.8452727584e-01 8.6473173800e-01 1.0360243586e+00 -4.8726973837e-01
1902 3.0520699189e-01 4.1993818355e-01 -1.2424049800e-01 6.9284092319e-01 -7.6939019043e-02 3.4526104688e-01
1903 -7.7220877152e-01 -1.2674246362e+00 -1.5744527968e-01 9.1019324953e-01 7.7395114941e-02 -6.9444531125e-02
1904 2.0773513092e-01 1.7189039969e+00 -2.7660292132e-01 3.1110688999e-01 -3.7327939472e-01 -5.0402062042e-01
1905 -1.0637787359e+00 1.0115565413e+00 -2.0285028323e+00 5.3168744339e-02 7.5138610667e-01 4.7225083229e-01
1906 3.7567115736e-01 3.0627562812e-01 -7.2352866674e-01 1.0693891284e+00 4.1225546105e-01 -7.7487887641e-01
1907 1.9741619782e+00 1.0862928664e+00 7.4783550375e-01 -9.4152843159e-01 2.6382909452e-01 3.9896485404e-01
1908 -6.7320976452e-02 -1.8666337922e+00 7.3472222668e-01 -2.4628844219e-01 3.7165621348e-01 5.9413340017e-01
1909 1.2175295720e-01 1.1406584966e+00 9.5864538035e-01 5.7924427796e-02 -8.1850525165e-01 -1.2650952844e-01
1910 -3.1578045947e-01 -3.2947982280e-01 1.2849170067e+00 -1.1779359861e-01 -4.8173582341e-01 -7.3779999664e-01
1911 -1.9994047976e+00 -6.1600311599e-01 -2.2809798175e-01 1.2680623011e-01 -7.1417723282e-02 -1.4596429050e-01
1912 5.1188114186e-01 3.8633587668e-01 -1.4485910641e-01 -3.5092974400e-01 -2.7435707321e-01 3.9264985754e-01
1913 -1.1902363620e+00 7.0161481531e-01 2.4238016353e-01 6.9821045619e-01 -3.8648338983e-01 3.4544886908e-01
1914 1.4985123327e-01 4.8861966960e-01 2.9322823210e-01 1.3119287540e-01 -6.8237082206e-01 -5.8686390799e-01
1915 1.1191732052e-01 2.0205822514e-01 2.3162876243e+00 -4.4504780402e-01 -2.5302550020e-01 -4.0578440109e-01
1916 -1.6841380728e+00 -1.6904995287e-01 -4.0570666071e-01 7.3093112091e-02 -3.4310152512e-01 -3.3072123299e-02
1917 9.3211594398e-01 8.9540095583e-01 5.8605581572e-02 -3.4536478031e-01 5.6984716204e-01 -4.9374029394e-01
1918 -1.2213208053e+00 -4.4455833462e-01 -1.3318861586e+00 2.3220159591e-01 -8.4340562337e-02 -6.5457534715e-02
1919 9.2388724519e-02 -2.6886162523e+00 3.1621830610e-01 -2.3660192373e-01 8.6730204984e-02 1.3308693349e+00
1920 -1.5443804952e+00 1.2079402069e+00 1.9013605654e+00 3.0402428351e-01 -3.6349732928e-01 -3.4857324372e-01
1921 7.7594106051e-01 6.8288734006e-01 1.3103594703e+00 -3.0345564568e-01 1.5338060116e-01 -4.3263205278e-01
1922 1.8898390564e+00 -7.0911208044e-01 1.4513492606e+00 7.0061726284e-02 1.3545833045e-01 -5.0006826470e-02
1923 -2.5511297324e-01 -9.7349707710e-01 -1.4067943177e+00 -2.3265112420e-01 8.7728612766e-01 1.0963516579e-01
1924 -8.2496785724e-01 -1.8103569927e+00 -2.0713240444e-01 -3.6409050679e-01 2.2269142912e-02 9.6556677242e-01
1925 5.7306707631e-01 4.1744099344e-01 3.9497616659e-01 -2.6310545388e-01 1.3175235666e+00 -4.5779103282e-01
1926 -7.9331930536e-01 -1.2013398691e+00 1.3293486337e+00 5.5861616545e-01 -6.5486440617e-01 7.9467282171e-01
1927 -2.6658191532e-01 -7.4359555680e-01 1.2138404799e+00 -8.0586139619e-01 3.7304742712e-01 7.5166225895e-02
1928 3.6232729595e-01 5.6512911751e-01 -1.0223679426e-01 2.0006045729e-01 1.5444038306e-01 6.8510793929e-01
1929 9.1001942612e-01 -1.6067106908e+00 -4.1898952407e-01 2.4166844604e-01 1.5688826678e-03 -2.9598552998e-01
1930 6.8210134740e-01 1.2582623068e+00 -6.2981808990e-01 1.2154758879e-01 -1.5952496991e-01 -8.3772058196e-01
1931 1.7035372046e+00 -9.0366865840e-02 7.5971648435e-01 2.2464272752e-01 -1.4232405445e-01 2.5810555038e-01
1932 1.3068627799e-01 1.9106371805e-01 -1.2133375624e-01 8.0139718720e-02 3.2771511223e-02 3.7677901876e-01
1933 -5.3421771711e-02 1.1712014367e+00 6.8936470490e-01 1.8604891680e-01 4.0469298083e-01 -1.7289405825e-01
1934 -9.0754727952e-01 1.8816478433e-01 1.3219636630e+00 -3.6306656902e-02 -1.3855197735e-01 2.6073552553e-01
1935 -8.7390116426e-01 4.4179823359e-01 2.9919621661e-01 -1.1040338050e-01 -2.4057567788e-02 6.7443845562e-02
1936 7.7286685908e-01 -1.2654652289e+00 -6.1228899682e-01 4.7322700171e-01 6.3698745832e-01 1.5436338833e-01
1937 -2.0695714448e-01 -1.2973062979e-01 -2.7973568577e-01 5.2060484212e-01 -7.6142735937e-02 2.5764188525e-01
1938 -1.5084659214e+00 -1.8205256896e+00 6.7841235147e-01 1.0010403074e-01 -1.5119195686e-01 4.1394754944e-01
1939 -3.0777382065e-01 1.6091883820e+00 2.1092430964e+00 -9.6028925240e-01 -8.4522650031e-02 -7.3200076403e-02
1940 1.4047921285e+00 1.1173548443e+00 -3.0523396771e-01 -4.1101692447e-01 7.4384942793e-02 -2.2118050180e-01
1941 -8.3026120108e-01 1.1820881873e+00 -1.3726330831e+00 -2.0194968473e-01 -6.3733226320e-02 -1.8019915682e-02
1942 9.2798835978e-01 -3.8044394298e-01 -1.0274119315e+00 -1.2812784027e-01 -6.1633821176e-01 4.9102641729e-02
1943 -1.9005520183e+00 3.2141534980e-01 5.9061087305e-02 -5.8103001167e-01 9.5609233540e-01 -9.3906505248e-02
1944 -7.2431222042e-01 -3.5079277908e-01 -9.3141631705e-01 1.3491873389e-01 4.5384148826e-01 -2.9889982532e-01
1945 -9.7762580248e-02 1.0141154233e-01 -8.1486207911e-01 -4.8340977327e-01 -2.3913824076e-01 -3.2085875866e-02
1946 1.4524299036e+00 -1.0270137847e+00 1.3392504193e+00 6.7647749734e-02 1.6198347917e-01 3.5890131506e-01
1947 -2.8616753764e-01 -3.5719687032e-01 1.8652744350e+00 3.6897406042e-01 2.6445077440e-02 -5.0682624586e-01
1948 -4.2678335120e-01 -1.5997773509e+00 1.8544143136e+00 -1.9214399904e-01 1.6304814802e-01 5.4590265197e-01
1949 -1.1545775754e-01 -3.4557343557e-01 -6.7166752856e-01 -1.5011112665e-01 7.4175524377e-02 -1.0629400978e+00
1950 -1.2337669294e+00 4.5291258426e-01 2.3086608003e-01 1.2157657227e-01 3.1765061455e-01 -7.1649543463e-01
1951 -7.9000074036e-01 1.1706235828e+00 4.3359116835e-01 7.1802253189e-01 -6.9634726568e-02 -2.5257423928e-01
1952 -1.5762179652e+00 2.0630135312e-01 2.7547473660e-01 -3.8325923455e-01 2.2057456214e-01 3.1686419929e-01
1953 -2.2327597387e-01 5.8936083205e-02 1.4692333396e-01 2.3006300241e-01 -3.0659295939e-01 1.3824779059e-01
1954 -1.0809681625e+00 -7.9318632000e-01 -1.4932312288e+00 -5.4339315187e-01 -1.2783252138e-01 -3.0408496269e-01
1955 -1.0394061428e+00 1.7495184440e-01 7.3520586125e-01 -1.9437167054e-01 -5.8374318232e-01 -5.9879735956e-01
1956 3.0831288711e-01 2.8207075911e-01 2.5770297165e-02 -3.4059259043e-01 -3.8081434531e-01 -7.0106684978e-01
1957 8.9327456328e-01 -6.7541081074e-01 5.5732169701e-01 -7.4544036401e-01 -4.1421203716e-01 4.7777112566e-02
1958 2.9650952453e-01 4.4358931223e-01 8.1948291989e-02 -5.7702784203e-01 1.8936690714e-02 -1.2346507007e-01
1959 -1.1745081122e+00 1.6441377404e-01 6.8977958030e-01 2.2211031790e-01 -5.3113145274e-02 9.8989187813e-02
1960 -1.7981904792e-01 -5.8479407689e-01 1.1992129260e+00 -9.4177717942e-02 2.3033324121e-01 1.6678695229e-01
1961 -5.7244637425e-01 -9.8648651365e-01 8.5624398284e-01 -2.1435703351e-01 -1.4650735686e-01 -4.7737287720e-02
1962 6.2000535856e-01 5.2056426190e-02 -1.5881042464e-01 -1.6391872800e-01 -8.5007022707e-01 -1.4759733180e-01
1963 5.5341808651e-01 -9.7528784710e-01 5.1993530499e-01 1.8903028775e-01 -1.2607867714e+00 9.6168677516e-01
1964 -1.0410709140e+00 1.0784338878e+00 -1.6338390401e+00 -5.4374015430e-01 7.1480226321e-01 5.4999972609e-01
1965 6.5984029487e-03 -4.2926763834e-01 2.8819880673e-01 -1.3652490931e-02 -3.6917362269e-01 7.6853126414e-01
1966 -1.5591515787e+00 -5.4091492564e-01 2.6688493256e-01 -1.6862138083e-01 -9.6124054599e-01 -8.1741027281e-01
1967 -4.4250211180e-01 7.1687982289e-02 -4.7270045063e-03 3.5837816894e-01 1.4406635519e-01 -1.6663934748e-01
1968 1.0050038952e+00 8.6451847340e-01 1.4404267881e-02 9.8144791201e-03 -1.3510340872e-01 3.0193246677e-01
1969 -9.0952544097e-01 -4.9673191644e-01 -8.8537516584e-01 -1.6299921986e-01 5.4113809673e-01 2.8077758421e-01
1970 5.6554450276e-02 -1.3148028631e+00 -2.1056101984e+00 -2.8366084294e-01 -5.3415772170e-01 -6.2159898902e-01
1971 1.2698304094e+00 1.1031610253e+00 -3.4953248488e-01 3.4492948967e-01 2.3625047798e+00 -7.2154299836e-01
1972 7.3741628886e-02 6.2543678969e-01 -8.6717986017e-01 1.9396140758e-01 3.3637879508e-01 4.9806346868e-03
1973 -1.5178334513e+00 1.8056995625e+00 4.6704234876e-01 -1.7450234123e-01 3.1742857219e-01 1.6585567358e-01
1974 5.0268044694e-01 -8.8879294675e-01 -7.2931357045e-01 6.0466755816e-01 -3.8963380448e-01 -5.4775046528e-01
1975 2.0738830836e+00 -2.7732841830e+00 -8.7197130353e-01 1.5622104889e-01 -9.2501575446e-01 1.7967099418e-01
1976 1.5718018105e-01 -6.4463435092e-01 7.6679020760e-01 6.0765638229e-01 9.5894777989e-02 -2.0467802584e-01
1977 -3.3934647473e-01 -1.8009405444e+00 -5.1624233440e-02 9.9089295416e-02 -6.5094049477e-02 -7.6385172926e-02
1978 -9.0932345871e-01 -3.0858789194e-01 8.1137916640e-01 4.8355909801e-01 5.7958815128e-01 1.7834155523e-01
1979 1.7099626999e+00 -6.4965450439e-01 -8.7915176898e-01 -1.8986464518e-01 6.8107996407e-02 3.9101359760e-01
1980 8.2694302366e-01 -2.3121034672e+00 -6.2544738993e-01 2.1045612134e-01 -1.8730165937e-01 -8.6192147790e-02
1981 1.0411521755e-01 -6.7841473231e-01 -1.9047976318e+00 1.7675739586e-01 -2.9001575263e-01 3.7069275631e-01
1982 5.6708381207e-01 -1.5198480965e+00 4.5521214981e-01 -2.9529040374e-02 -1.6545955948e-01 2.0133908066e-01
1983 6.6679720647e-01 -8.9090685740e-01 -5.9388824205e-01 -1.1466188726e-01 8.4370913106e-02 2.1209657432e-01
1984 4.9296535375e-01 4.9362149547e-01 -1.7690289431e+00 2.3365856811e-01 -8.6516439449e-02 -1.5620116126e-01
1985 8.5017177770e-01 1.9494843906e+00 1.9952162939e-01 5.9375245224e-01 -1.0589903240e+00 -6.9884764877e-01
1986 -1.8623817647e-02 4.8717665445e-01 9.1238845290e-01 -2.0982058747e-01 1.0197756961e-01 5.9205369752e-02
1987 -1.5084338664e+00 -9.9287607794e-01 2.6695072285e+00 8.4998093027e-02 6.3983359300e-02 8.1324092546e-01
1988 1.1289199425e+00 -3.9504494856e-01 -1.5080151129e+00 2.3878106674e-01 1.3532367681e-01 5.8955414112e-02
1989 -7.8608239200e-01 9.6022875288e-01 -9.3890003588e-01 -1.6676921957e-01 -3.3997729599e-01 8.3131705752e-01
1990 -1.2581222520e+00 1.3118613696e+00 -8.3734523795e-01 5.3877939960e-01 -7.3699422291e-02 2.1202689522e-01
1991 -7.2728180994e-01 5.2599366824e-01 -1.5817967880e-01 7.6855132973e-02 -4.5518787829e-01 5.7003789793e-01
1992 -2.3046579396e+00 -4.1265349057e-01 -1.2661119782e+00 -8.9345512209e-01 6.2921493887e-02 -4.2387091018e-01
1993 1.4846894118e-01 -5.5685397801e-01 2.1322966888e+00 9.1566692469e-01 1.3059287321e-01 3.2947041502e-01
1994 1.5484622622e-01 -1.3222662657e+00 1.3362325267e+00 8.0554550913e-01 8.7268829578e-01 -7.0329368455e-01
1995 -1.1189794864e+00 1.5210893039e+00 5.2444018714e-01 8.0481939506e-03 4.0770971137e-02 -1.5450166316e-01
1996 -2.3031650973e-01 -6.3803039221e-02 -2.8172760866e+00 -3.8536980208e-01 2.8383613650e-01 3.4792108871e-01
1997 -5.2333249683e-01 8.1251111384e-01 2.7077156523e+00 6.4885542866e-01 3.2823085740e-01 1.4825027735e-01
1998 -7.6573968306e-01 -6.4090721488e-02 -5.3877668584e-01 4.9761535049e-02 -6.2911935377e-01 -2.1576009385e-01
1999 -8.9419505836e-01 1.4274176748e+00 -9.6098695638e-01 -3.2431252271e-01 1.0568045634e-01 1.3243921435e-01
2000 4.5260750390e-01 7.5874234067e-01 3.0450735918e-01 2.4551405518e-01 3.1668445484e-01 5.1856294820e-01
2001 1.8369514915e+00 -1.1217918152e+00 -8.2005295576e-02 5.9790627359e-01 -5.0562544592e-02 -4.9826024026e-03
2002 -1.0350170061e+00 -7.0648961173e-01 6.6276470906e-01 5.2336064681e-01 -1.1552122820e+00 -7.3023137366e-01
2003 -7.0371567654e-01 2.2224431350e+00 4.7616766107e-01 -5.2036964738e-01 -5.8331238319e-01 5.3518462853e-01

